# LAMMPS data file created from ClassyMC TIP3P_Config.clssy

1500 atoms
1000 bonds
500 angles

2 atom types
1 bond types
1 angle types

-12.206613405119064 12.206613405119064 xlo xhi
-12.206613405119064 12.206613405119064 ylo yhi
-12.206613405119064 12.206613405119064 zlo zhi

Masses

1 15.9994  # O
2 1.008    # H

Atoms  # full

1 1 1 -0.834 1.1448402620622200 1.4846096041364656 2.4416745756161928
2 1 2 0.417 0.90870995153584411 2.3431280891258250 2.0900590364511973
3 1 2 0.417 1.2176867840277790 1.6244238608477080 3.3851136875136199
4 2 1 -0.834 1.8883685160450423 0.57309525098334113 5.5213901446259719
5 2 2 0.417 2.8285821770148969 0.70856120150582957 5.4026793701583431
6 2 2 0.417 1.6186082831697528 1.2743891031355961 6.1132924589418778
7 3 1 -0.834 1.8301354913668828 2.5542140512405904 7.4097698970388919
8 3 2 0.417 0.95001478964217545 2.3280172170277975 7.7108804126103747
9 3 2 0.417 2.0642520672518425 3.3305714667045372 7.9171066612794121
10 4 1 -0.834 1.5446935046978623 0.84885291444340738 10.327658111269072
11 4 2 0.417 2.2517394698212927 1.3956292877626266 10.670537974752719
12 4 2 0.417 0.82842276421024796 1.4606389140973355 10.161507225178239
13 5 1 -0.834 0.82211422662035361 1.3932898878789035 -10.756403397880002
14 5 2 0.417 -8.9598227273427422E-002 1.6188177145075913 -10.941774918969742
15 5 2 0.417 1.2124131594523633 2.2100894972317549 -10.447474374977951
16 6 1 -0.834 2.2344023318154602 2.1406328395503396 -7.8508309056911285
17 6 2 0.417 2.9308853234173080 2.3019750928684792 -7.2141794157034207
18 6 2 0.417 1.9618407587926969 3.0129202829248123 -8.1332433789330079
19 7 1 -0.834 1.5602445616226595 2.1292951372962996 -3.8877146045717921
20 7 2 0.417 1.9233747533829981 2.2258132221935361 -3.0072228538325443
21 7 2 0.417 1.7778878608288522 2.9503919726272230 -4.3274456375000891
22 8 1 -0.834 2.5725119019709277 2.4947657507645351 -1.1072305833538223
23 8 2 0.417 1.6842315261748513 2.3258820391970820 -0.79277666631224042
24 8 2 0.417 2.9457062811008581 3.0921542579599719 -0.46009464179545578
25 9 1 -0.834 1.0636232230547007 4.4463921979613339 1.9340257090085595
26 9 2 0.417 0.11443525845242751 4.3913641911521699 2.0402713033680779
27 9 2 0.417 1.3854732782288945 4.7269424861191558 2.7892830257261272
28 10 1 -0.834 1.6054320454433764 4.5324010539189974 5.2067291587314362
29 10 2 0.417 2.5357291985500225 4.7548934253203949 5.2245715685981793
30 10 2 0.417 1.3590457900495942 4.4547550058306404 6.1270692612855360
31 11 1 -0.834 2.0612651704813869 5.5058933438713220 7.9212320806913228
32 11 2 0.417 2.8187867453295103 5.7071597042415174 7.3726640212648196
33 11 2 0.417 1.9415624579550119 6.2854514333059370 8.4613445188103515
34 12 1 -0.834 2.6826414917537886 3.3617833194313289 10.481408413919008
35 12 2 0.417 3.5072332471883381 3.4448021902592956 10.959352243208413
36 12 2 0.417 2.2925468061493834 4.2335450007383209 10.521641575216684
37 13 1 -0.834 1.1359883615586002 4.1392610113175827 -9.7723299735797013
38 13 2 0.417 1.1191967609588360 4.7708670437318697 -9.0539527314797148
39 13 2 0.417 0.76630771406633924 4.6116796441240888 -10.516586551815278
40 14 1 -0.834 0.22778729784371801 5.4944490640224082 -7.5387866431211794
41 14 2 0.417 -0.54129341492920902 4.9409109465078016 -7.6706365945776342
42 14 2 0.417 0.60306552566114824 5.1920375159186216 -6.7132719507627199
43 15 1 -0.834 1.6643280046299669 4.9173183957451840 -4.6569430012213200
44 15 2 0.417 1.9893939698095517 5.7466915752980912 -5.0058645501691581
45 15 2 0.417 0.89591856191309560 5.1578479202466214 -4.1417212274319573
46 16 1 -0.834 2.6563698120234385 5.5233716883085409 -1.9678519641102641
47 16 2 0.417 1.8481268759183034 5.4332515195450117 -2.4717326160688269
48 16 2 0.417 2.5691588801172518 6.3643061377867101 -1.5217751713526706
49 17 1 -0.834 0.31514534635603875 7.9733587104533363 2.5628476926009891
50 17 2 0.417 -0.23982207857126966 7.5583722616118010 1.9023612017872558
51 17 2 0.417 0.80190322071703057 8.6410042032261529 2.0809262594526694
52 18 1 -0.834 1.8665726924018458 7.6333637159460688 5.4432643788784647
53 18 2 0.417 1.7776634056092087 7.9836503486662140 4.5567885395801744
54 18 2 0.417 2.5145628818755745 6.9346693852065240 5.3603973375518947
55 19 1 -0.834 1.1089840405558113 8.3749915156622308 8.0083026509692186
56 19 2 0.417 1.7994381669249013 9.0247715243910065 7.8759998179068873
57 19 2 0.417 1.1081346881652645 7.8595629689413578 7.2025330239505934
58 20 1 -0.834 1.7503529056419329 5.8153065081377084 11.269163792131950
59 20 2 0.417 1.8326343663742743 5.9272494299954976 -12.196886401278212
60 20 2 0.417 1.2213013640879553 6.5599832806302523 10.985450960399856
61 21 1 -0.834 2.3497210497605696 6.9025453732871176 -10.401477457548818
62 21 2 0.417 3.1644885153478728 7.3435590430879731 -10.642529153392731
63 21 2 0.417 2.1870012640053620 7.1770188311294438 -9.4997465707184610
64 22 1 -0.834 3.3276049576962166 8.6360127514299521 -7.6326178428710705
65 22 2 0.417 3.9167008246005546 9.3364188651505060 -7.3518290691299200
66 22 2 0.417 2.5949979361109161 9.0911841560749593 -8.0461851823907864
67 23 1 -0.834 2.9878332194715087 7.3478475041577340 -5.2532656166542884
68 23 2 0.417 3.5286632359705217 7.4343813995576413 -6.0384151426686667
69 23 2 0.417 2.2333084485318278 7.9118091260526331 -5.4193127758233324
70 24 1 -0.834 0.79668394557377520 8.2143970308012619 -1.3885354006080124
71 24 2 0.417 1.6273304586469060 8.1733855036990501 -0.91441576911803546
72 24 2 0.417 0.44198685813987093 9.0767503955953739 -1.1753016078026171
73 25 1 -0.834 1.0953898989651873 10.407231698372563 0.73853996254301746
74 25 2 0.417 1.9238502314145021 10.561575761671856 1.1914255857220166
75 25 2 0.417 0.61199176349926354 11.226159544079621 0.83572240001845177
76 26 1 -0.834 1.5797931556938407 11.511222751813067 5.0097656645075848
77 26 2 0.417 1.9521626254342193 11.295141695387354 5.8641215359447827
78 26 2 0.417 2.0025693516168133 -12.080668556870672 4.7639419836969390
79 27 1 -0.834 2.0678364349366234 11.961873544459104 7.9803756809981090
80 27 2 0.417 1.7713960215703313 -11.546173763646115 7.8906697712617069
81 27 2 0.417 1.9414369127639473 11.758013583513653 8.9057000982258145
82 28 1 -0.834 1.1971008980070188 11.652106663866954 10.584685046991789
83 28 2 0.417 0.44883370910252557 11.229922768022455 11.005554352238116
84 28 2 0.417 1.0505708940313536 -11.825666504902220 10.715896489318109
85 29 1 -0.834 2.0164824548149096 11.092681830045828 -10.056012673289731
86 29 2 0.417 1.4991147578670014 10.794552585682874 -9.3085344998221728
87 29 2 0.417 1.6271616196290506 11.931278387777674 -10.298800853913241
88 30 1 -0.834 0.92273443036010849 10.065386938779673 -7.4756072814528443
89 30 2 0.417 1.1308599006256812 10.018914257616395 -6.5429776236935488
90 30 2 0.417 0.12009608213530867 10.582868145252920 -7.5173910451171260
91 31 1 -0.834 1.5011058270436757 10.073408785246766 -4.5872373804767310
92 31 2 0.417 1.5386032102167455 9.6939160229142587 -3.7098245987186687
93 31 2 0.417 1.6921495272928508 11.000859697288709 -4.4564776376363513
94 32 1 -0.834 2.0942453680323103 11.043359846166499 -1.7071071955550809
95 32 2 0.417 1.8485592577240137 11.954681890300209 -1.8633264871855924
96 32 2 0.417 1.8890072007209913 10.893541790804905 -0.78559059507174855
97 33 1 -0.834 0.87772935207996239 -11.390835096713603 1.4492154162550288
98 33 2 0.417 0.17427238757341815 -10.880449592006222 1.0478428515824565
99 33 2 0.417 1.6754381830632536 -10.908620374107828 1.2345957939612990
100 34 1 -0.834 0.33750919259920459 -10.167139964597196 3.7869068252822289
101 34 2 0.417 0.76303573400852576 -10.580096951360678 3.0353493160791984
102 34 2 0.417 0.67425663139718650 -9.2718622000156419 3.7902063265869788
103 35 1 -0.834 0.84510809145813959 -9.9260548127286459 7.6726998002544420
104 35 2 0.417 0.98074807558843968 -8.9800326684931022 7.6171219510597261
105 35 2 0.417 -6.0155711737568451E-002 -10.054714602256491 7.3918508992733383
106 36 1 -0.834 1.0982322124848467 -9.7435012746319938 10.515692602807798
107 36 2 0.417 1.0719451614140127 -9.9140776603314809 9.5740675778707516
108 36 2 0.417 1.3175110591074377 -8.8149970186839237 10.584457667413210
109 37 1 -0.834 2.1189156962288900 -10.361129243436503 -11.158755394136850
110 37 2 0.417 2.4788274260660796 -9.5054913741841087 -10.924677664681814
111 37 2 0.417 1.6433801886389219 -10.205592746195977 -11.973989335436711
112 38 1 -0.834 1.0787232705541419 -10.249446772145690 -7.9139261352384285
113 38 2 0.417 1.1711029913169968 -10.282795021774735 -8.8661860164885251
114 38 2 0.417 1.4002538559930053 -9.3814670827061555 -7.6727595095461805
115 39 1 -0.834 2.0424279199486892 -11.525182199138598 -4.6475293262738804
116 39 2 0.417 1.5876957532459539 -11.042032820552173 -3.9574348874197671
117 39 2 0.417 2.8411805327168826 -11.022912000880813 -4.8045354138567484
118 40 1 -0.834 0.96562759626216954 -10.771105293198307 -1.8538041989005432
119 40 2 0.417 8.2992200135236394E-002 -10.775904643364591 -1.4831605374926724
120 40 2 0.417 1.3313433664523209 -9.9276886055163249 -1.5895462446706528
121 41 1 -0.834 1.2776087126242412 -7.2548514611670862 1.1645448366581297
122 41 2 0.417 1.1695790643179842 -7.5883850252477760 0.27439936724402436
123 41 2 0.417 1.9528388509243084 -6.5824418648890788 1.0891088030633012
124 42 1 -0.834 0.84136212935861632 -7.3498638896373034 4.3328315009014196
125 42 2 0.417 1.0108088508149444 -6.4166583322583541 4.2075749790562345
126 42 2 0.417 -9.4820476020869349E-002 -7.4486916211412151 4.1668308717740858
127 43 1 -0.834 1.1438636201113943 -6.7012100068872202 7.4710512797418822
128 43 2 0.417 1.1620734377175892 -6.9873004840175810 6.5583110968650322
129 43 2 0.417 1.6676956031625609 -5.9016981921290288 7.4829639450502619
130 44 1 -0.834 1.9499573368299985 -7.0095841429138241 10.332375493956137
131 44 2 0.417 1.5638412268641084 -6.1634115500953648 10.556385075866595
132 44 2 0.417 1.9156779496436203 -7.0443878750427524 9.3777160657598682
133 45 1 -0.834 2.3700797218221084 -7.5527617021498825 -11.283146300609175
134 45 2 0.417 2.5366568630392026 -7.3608105712751852 -12.205469898583267
135 45 2 0.417 3.1444867199596125 -7.2281992319888593 -10.826294022297425
136 46 1 -0.834 2.0107034885078852 -7.6569595414313660 -7.3070446721520597
137 46 2 0.417 1.5846811609657978 -6.8168793620404333 -7.4745089030496779
138 46 2 0.417 2.9426373067968310 -7.4824866009268129 -7.4287802518363986
139 47 1 -0.834 0.94209933641836718 -7.4702837540345879 -4.2998161070474117
140 47 2 0.417 1.7873793041582291 -7.9034043262206204 -4.1850017086169968
141 47 2 0.417 1.1119860195340932 -6.7757228123766460 -4.9342328574750551
142 48 1 -0.834 1.7569754470521559 -7.6476074516014503 -1.4882981719004800
143 48 2 0.417 2.6671059864633455 -7.3527578482162079 -1.4886337529875762
144 48 2 0.417 1.4217131195228372 -7.3939955013640875 -2.3468091796554313
145 49 1 -0.834 0.73205181105293426 -3.6859872947896277 1.8222600704618324
146 49 2 0.417 1.3169776067060188 -2.9283272652557897 1.8061947903092213
147 49 2 0.417 0.23792152105790296 -3.6239359214875906 1.0056102779676714
148 50 1 -0.834 2.0197625292522345 -4.7230219537257625 4.3701629805246887
149 50 2 0.417 1.7753820479034905 -3.9226691525017419 4.8350915491334749
150 50 2 0.417 1.8488204695765498 -4.5265547123443595 3.4497764121210621
151 51 1 -0.834 2.1615595982698159 -4.3962549884622675 7.8926315252250046
152 51 2 0.417 2.2388245656977976 -3.4928753818909315 8.1998454754931682
153 51 2 0.417 2.8905954924696844 -4.5046571393199315 7.2829696200204577
154 52 1 -0.834 1.6497005465892363 -4.4048017085918216 11.488839336735117
155 52 2 0.417 1.4550666076801293 -4.1663312118237075 -12.017913837926178
156 52 2 0.417 1.2878149528198968 -3.6873992768593222 10.969893705703784
157 53 1 -0.834 0.44507301394424909 -3.9986226098673714 -10.348501325520244
158 53 2 0.417 0.36620121516798082 -3.0446561206809561 -10.361622943832540
159 53 2 0.417 0.80636811131084984 -4.1968197326142187 -9.4853004490414641
160 54 1 -0.834 1.5675409677286982 -4.9670757159577539 -7.8101758018045482
161 54 2 0.417 1.2070769972451889 -4.6884508340179414 -6.9682263370815862
162 54 2 0.417 2.4174428794767651 -4.5313300376831682 -7.8623720111688149
163 55 1 -0.834 1.4522371177565445 -4.8091853832978799 -4.8135394020182538
164 55 2 0.417 2.3742053659137654 -4.5894589302208262 -4.6788551965296667
165 55 2 0.417 1.0562209386712389 -4.7201437131524120 -3.9474131024057817
166 56 1 -0.834 1.8145259438448900 -4.2557589126798030 -2.0348555081488136
167 56 2 0.417 1.5329742481190245 -3.3422962378422132 -2.0873872539075307
168 56 2 0.417 2.3200738815412976 -4.3039021845400214 -1.2242782397372847
169 57 1 -0.834 2.5253353373706617 -1.0472578195863897 2.7043796164926590
170 57 2 0.417 2.6397604738338734 -0.81123903986724200 3.6244209328286483
171 57 2 0.417 2.0747549116017212 -0.29789576992180078 2.3181221914036834
172 58 1 -0.834 1.4811870554288753 -2.2527628301686802 5.6666137598492794
173 58 2 0.417 1.7752114746059406 -2.1034038747388513 6.5646758642499154
174 58 2 0.417 1.3759604833740120 -1.3765949463273714 5.2991655215100133
175 59 1 -0.834 2.1973995431955671 -1.5783726137039547 8.6145783415286861
176 59 2 0.417 1.6507885156864448 -0.79332416822033658 8.6283378055143523
177 59 2 0.417 2.6171169154580416 -1.5942441860850773 9.4732671213617721
178 60 1 -0.834 0.62060353454413819 -1.5510958210439345 11.219228447044001
179 60 2 0.417 -0.12972076590370174 -1.3559517056190964 11.779769452120808
180 60 2 0.417 1.0588793406839307 -0.70963706057983489 11.102513100192201
181 61 1 -0.834 0.88012697400563811 -1.2665643708036223 -9.9515709072377767
182 61 2 0.417 0.83842218484079334 -1.0364353507147384 -9.0238989044945370
183 61 2 0.417 0.62308607421584927 -0.46770843612714130 -10.409304641484463
184 62 1 -0.834 0.19140028028422804 0.23690632752414972 -7.6952745171391346
185 62 2 0.417 -0.60915103325684417 0.75891788965817808 -7.7388121260083871
186 62 2 0.417 0.87572012025565249 0.81830128315245854 -8.0230660090840047
187 63 1 -0.834 1.5878872542784601 -0.63293604510825363 -4.8409645592515993
188 63 2 0.417 1.7719572603590934 0.30588885756867734 -4.8411515756178813
189 63 2 0.417 0.93740947178033407 -0.75059662892566015 -5.5314684632898521
190 64 1 -0.834 1.5963199254917233 -1.6022789541381988 -2.1223248877850462
191 64 2 0.417 1.3494106869987803 -0.92225841078194737 -1.4963201844797871
192 64 2 0.417 1.2898850396224502 -1.2747665712391241 -2.9664778951066220
193 65 1 -0.834 4.5664027680607715 1.9776595816850930 2.0293261114592096
194 65 2 0.417 5.1379039653983583 1.4155872573590531 1.5074132033333127
195 65 2 0.417 4.1612183486198280 2.5652788194087037 1.3913808021266381
196 66 1 -0.834 4.4670417604318704 1.2370726913577079 4.8797855606419223
197 66 2 0.417 4.5106405525922844 1.5108892176945954 3.9643317632130430
198 66 2 0.417 5.3685068181599416 1.3081946019006065 5.1940265884152641
199 67 1 -0.834 4.3327835987665573 0.33993115686380715 7.9376022355123643
200 67 2 0.417 4.5770369559797430 0.54829108315555386 8.8386341098685328
201 67 2 0.417 3.6861202789299159 1.0063086317216614 7.7047662164347361
202 68 1 -0.834 4.8281653826198561 1.0390232858819421 10.683270246381978
203 68 2 0.417 4.6677974520595518 1.9816508057567366 10.657434503263257
204 68 2 0.417 5.7621276200397737 0.96043101692644473 10.878161996679442
205 69 1 -0.834 4.5658849797133367 0.41672910604703217 -9.9631791936259422
206 69 2 0.417 4.6671146198149573 0.73260213590230261 -9.0660121027365399
207 69 2 0.417 3.8693127948724757 0.96059787046583889 -10.331199516971786
208 70 1 -0.834 5.1400736688313549 1.3681919365775237 -7.2411789469493240
209 70 2 0.417 4.8094715751828669 2.0603733423293833 -6.6697603987671554
210 70 2 0.417 6.0779241804981083 1.3300603007490390 -7.0529572794520536
211 71 1 -0.834 5.6186230832258728 0.94009496348190247 -3.4224685164403503
212 71 2 0.417 6.5410115861666185 1.1386990296904798 -3.5795922718949313
213 71 2 0.417 5.1671025588696589 1.7721944526278743 -3.5645412310906566
214 72 1 -0.834 4.9539513392759753 0.82321180727547383 -0.49947500203295386
215 72 2 0.417 5.7173285371336036 1.1617559296439677 -0.96592449662029545
216 72 2 0.417 4.2401145303393024 1.4090571664003551 -0.75179865411288349
217 73 1 -0.834 3.6822880849030657 4.2043695606951870 0.58313424727656926
218 73 2 0.417 4.1210400855643101 4.8892006832018975 1.0853931601511484
219 73 2 0.417 2.7493960808369624 4.3870045174562877 0.69098127467365733
220 74 1 -0.834 4.0549563032535270 5.6970947906426730 5.5663997862473424
221 74 2 0.417 4.8221464252004722 5.4598472119147381 5.0478499784421906
222 74 2 0.417 4.3460821656043294 6.4328388322001313 6.1041733794845010
223 75 1 -0.834 6.1392725878491490 3.7622310583139513 7.7199121709356717
224 75 2 0.417 6.8685318427074034 4.3301352344405881 7.4761360729656303
225 75 2 0.417 5.3659820806977647 4.1957059262466689 7.3601965465596209
226 76 1 -0.834 5.4751408199730491 3.9424702833060623 10.523515597845508
227 76 2 0.417 5.8671459733834395 3.7862501474588455 9.6657928985681796
228 76 2 0.417 6.2037307443339929 4.2313872227511533 11.072111737297289
229 77 1 -0.834 4.2629272141620218 4.9463714790120710 -10.047141488954496
230 77 2 0.417 3.3186287838836832 4.9199879001569311 -10.193310505304296
231 77 2 0.417 4.5790938476226701 5.6284525757807984 -10.638815417158980
232 78 1 -0.834 4.8254851434206660 5.8062333416497989 -6.9959278334645667
233 78 2 0.417 5.4076722784486471 6.5527386693795320 -6.8634554383060502
234 78 2 0.417 4.4649890748644996 5.9347816572580774 -7.8727356317361288
235 79 1 -0.834 4.6579927297008190 3.5086968329476309 -5.4943042891871539
236 79 2 0.417 4.5002690383100630 4.3516540260729260 -5.9165689073265337
237 79 2 0.417 4.6738337206411487 3.7074509391476771 -4.5586121024747506
238 80 1 -0.834 4.7539913612016509 4.0633901051619361 -2.8744449691009466
239 80 2 0.417 5.2480508546590290 3.9561709252341628 -2.0631680346449865
240 80 2 0.417 4.0038953515366131 4.6044460470522459 -2.6297238134364238
241 81 1 -0.834 4.2653180712667025 6.7958776509214491 1.9811896796779811
242 81 2 0.417 5.1664065641306314 7.0022165955297400 1.7354341752306555
243 81 2 0.417 3.9933296096177417 7.5302012604112978 2.5318584669500126
244 82 1 -0.834 4.5805280507435899 8.5325322290128707 3.8882430504604537
245 82 2 0.417 4.9228308547228155 8.2021451608488167 4.7180654263806892
246 82 2 0.417 4.8943869831851909 9.4357766264452803 3.8425579431104198
247 83 1 -0.834 5.1985444006691672 7.5416089810445879 7.0336462527828250
248 83 2 0.417 4.8685961134155544 8.3991741759322096 7.2994432886123137
249 83 2 0.417 6.1262148860415806 7.5585421658826348 7.2694125307365383
250 84 1 -0.834 5.4162355037815137 7.1683150982640358 10.036354485018183
251 84 2 0.417 4.5593768331780131 7.5909336891978691 10.082384314571371
252 84 2 0.417 5.2202947091616876 6.2314548211582190 10.017779604535026
253 85 1 -0.834 5.2122368027124519 7.1940888316141640 -11.503489525616351
254 85 2 0.417 5.6915613748074589 7.1062085068462668 12.086659522132335
255 85 2 0.417 5.2783309935646585 8.1240672869447099 -11.286195644992416
256 86 1 -0.834 6.8063530174599034 7.9399305129320945 -8.1422214044343484
257 86 2 0.417 7.0742423289264051 8.1388733189148379 -9.0386527050646457
258 86 2 0.417 7.1031190572207592 8.6929902626706408 -7.6310698310548304
259 87 1 -0.834 4.9726384454743471 8.5281158766158676 -3.4374187936466201
260 87 2 0.417 4.1124778879688062 8.1291265748691028 -3.5633685947714833
261 87 2 0.417 4.8128166192814295 9.4692112348065383 -3.5098170716949340
262 88 1 -0.834 3.4099638355953914 8.0878150681529100 -0.36640727947840096
263 88 2 0.417 3.7235723147841040 7.5185271617776639 0.33537117661428040
264 88 2 0.417 4.0257749780867984 8.8207375243265371 -0.37321242604885296
265 89 1 -0.834 3.1243012601632816 11.062941118577761 2.1874776608225286
266 89 2 0.417 3.8490596265301154 10.848516067122763 2.7727196686191427
267 89 2 0.417 2.8099793455055391 11.912617817174494 2.4949272368958226
268 90 1 -0.834 5.2830218957660895 11.339682547032874 3.8304855972566560
269 90 2 0.417 5.9595026342127717 11.456879587029775 4.4956169108531476
270 90 2 0.417 4.7400700257906214 12.124441949840506 3.8985293081721837
271 91 1 -0.834 4.0333609990413430 10.095028180247883 7.8450033230745460
272 91 2 0.417 3.3095398424129097 10.714721017648385 7.7686834666044913
273 91 2 0.417 4.2231700797477441 10.060877493721383 8.7820626827157433
274 92 1 -0.834 4.0096281162946763 9.8698697111457410 10.681959180820932
275 92 2 0.417 3.6300047686637731 10.687544985579743 10.999849507054362
276 92 2 0.417 4.5604682218177510 9.5643038607601571 11.402013824042866
277 93 1 -0.834 4.7858096664511525 9.9016788943885619 -10.846070252956117
278 93 2 0.417 5.4267510112067505 10.075577621099857 -10.158527944853498
279 93 2 0.417 4.1759827024584215 10.637272827108418 -10.798251426818837
280 94 1 -0.834 4.4515012756586598 10.989127677080111 -6.4835827645684114
281 94 2 0.417 4.3773387599759683 11.516847659727416 -5.6900006697714458
282 94 2 0.417 5.3931559535649622 10.910285601901712 -6.6330631805390201
283 95 1 -0.834 4.5160089929276612 11.290384429621787 -3.4882617747647271
284 95 2 0.417 4.7797984103142976 12.205130487980117 -3.4021467819195395
285 95 2 0.417 3.6248200779263322 11.263216852773020 -3.1413925767275903
286 96 1 -0.834 4.8981409861683680 10.410700483356457 -0.33201002772517807
287 96 2 0.417 4.3369540858920326 10.903528394524439 -0.92862624685774464
288 96 2 0.417 4.7360686440159991 10.799301365068651 0.52705685595836460
289 97 1 -0.834 4.5947794647976492 -9.6264945452952642 1.6402238757493763
290 97 2 0.417 4.3715552917900897 -8.7156103641983780 1.8283540891988377
291 97 2 0.417 4.3430106779370901 -9.7504506943860747 0.72496852828324587
292 98 1 -0.834 3.8446451239243631 -10.838033424186690 4.0788667192674506
293 98 2 0.417 3.6886852908622187 -10.017516948541060 4.5450868857824842
294 98 2 0.417 4.1304955655233329 -10.566917118499040 3.2063814908377997
295 99 1 -0.834 4.0856301576391898 -10.486162043751971 7.3348922939912287
296 99 2 0.417 3.9177691262659846 -11.101672548005888 6.6222202142102073
297 99 2 0.417 3.8284692429675329 -10.960055222882920 8.1259286513973912
298 100 1 -0.834 4.0881047755954185 -11.063555270171394 9.9541985461954976
299 100 2 0.417 4.5107596739857252 -11.205457895935732 10.800460019776718
300 100 2 0.417 4.2871375317974545 -10.152688763306957 9.7370507425427970
301 101 1 -0.834 4.4095300770394772 -11.892799210045778 -11.790136969946758
302 101 2 0.417 5.0511699413240443 -11.318911067653238 -11.373144542459022
303 101 2 0.417 3.5649960184704788 -11.481544882614882 -11.605537126809436
304 102 1 -0.834 3.8113538264921276 -10.980704062136777 -7.3881479370180516
305 102 2 0.417 4.0193678222326472 -11.913123240899592 -7.3406436987721717
306 102 2 0.417 2.9252665610772430 -10.951295313652979 -7.7492981600308370
307 103 1 -0.834 5.3441766278303042 -10.468665306495090 -4.5400013061291205
308 103 2 0.417 4.8420382236420600 -9.6736298711571767 -4.7152373743238378
309 103 2 0.417 6.2391644800525956 -10.248307504723879 -4.7986210725297118
310 104 1 -0.834 4.9263296397486434 -10.526107513237934 -1.0679158882491608
311 104 2 0.417 5.1962124599608233 -9.6317241330944281 -1.2732780870039322
312 104 2 0.417 5.6375576508615888 -11.073234760923459 -1.4014597250208456
313 105 1 -0.834 4.5696102560311642 -6.6380698520085026 2.4159129425529877
314 105 2 0.417 5.2584513218076978 -6.6688926097089176 1.7538638932314194
315 105 2 0.417 4.1977100381515076 -5.7602802637948933 2.3356031251902216
316 106 1 -0.834 3.5294332700857005 -8.1202377046482468 4.5208771408659736
317 106 2 0.417 2.6659700268231128 -7.7117135089850724 4.4848187286405246
318 106 2 0.417 3.9697426654387624 -7.8229861297437946 3.7252370604397442
319 107 1 -0.834 4.5178133339026960 -7.6978365385578806 7.2447925216025828
320 107 2 0.417 4.3654917345364472 -8.6286079795131627 7.4004320251629956
321 107 2 0.417 4.4018011833082200 -7.5894286649483096 6.3013610647103020
322 108 1 -0.834 5.0564925150638027 -8.4335615412537770 11.016538609171322
323 108 2 0.417 4.4050322656219425 -7.8042811732863706 10.710978857423894
324 108 2 0.417 5.2451592932987445 -8.1671805717137005 11.915827231281787
325 109 1 -0.834 5.1719591367657181 -7.1643065912426449 -10.709724794896205
326 109 2 0.417 6.0489454664235094 -7.5330935706769822 -10.616707907219547
327 109 2 0.417 5.2341024552968811 -6.2938121878475748 -10.317740481919534
328 110 1 -0.834 4.6268222942406600 -7.6547311777586247 -7.6883764666088865
329 110 2 0.417 4.7550768672138828 -8.4527083103377922 -8.1988118301880561
330 110 2 0.417 5.5015645789330669 -7.2750108904226938 -7.6114840823524830
331 111 1 -0.834 4.1491106738249481 -8.1165151250667762 -4.7482293566199720
332 111 2 0.417 4.1465935619900396 -8.1666823569139986 -5.7028171802364271
333 111 2 0.417 4.4417620724982356 -7.2264585460739674 -4.5547650316239086
334 112 1 -0.834 4.2209709599005505 -6.8003675758056739 -1.6369613232403124
335 112 2 0.417 4.4751580745247681 -5.8911959771393185 -1.7871509198756412
336 112 2 0.417 5.0429773689920712 -7.2521061409546608 -1.4485157550525627
337 113 1 -0.834 4.4432504177022007 -3.9677994237067269 1.0405725180832581
338 113 2 0.417 5.0381853555288743 -3.7267611198381538 0.33142869922749529
339 113 2 0.417 4.7024083934793337 -3.4065694857133213 1.7715329139262976
340 114 1 -0.834 4.6412373555250737 -3.8083566774542112 3.9552321853125862
341 114 2 0.417 3.9231407591275356 -4.3435349537408330 4.2911689216680315
342 114 2 0.417 4.7418768637080007 -3.1097390409883263 4.6019547590731760
343 115 1 -0.834 4.9050621547615538 -4.8276062850115711 7.0955970097424119
344 115 2 0.417 4.8127949409163371 -5.7791918311771742 7.0655352470203256
345 115 2 0.417 5.7402340740728732 -4.6820928014630887 7.5402976858150152
346 116 1 -0.834 4.6289985781083098 -4.5870253729029553 10.518840414274932
347 116 2 0.417 4.5188575901390209 -3.9775946689459971 9.7898718416713688
348 116 2 0.417 3.7390025806610399 -4.7484429827503458 10.832363108443957
349 117 1 -0.834 5.0418734097736237 -4.3526236555234679 -10.194068814434893
350 117 2 0.417 4.3144305869431392 -3.8756282850944856 -10.591855636868381
351 117 2 0.417 5.7684115688222510 -3.7292824836095968 -10.199820930851695
352 118 1 -0.834 4.1782249997490304 -3.7673966345068699 -7.4656479788844363
353 118 2 0.417 4.3808540219077354 -4.3405491213006968 -8.2041394861213579
354 118 2 0.417 4.4897005741201097 -2.9046850218184121 -7.7397950924980474
355 119 1 -0.834 4.4807307236088771 -4.9765549503560678 -5.1452808906362471
356 119 2 0.417 5.3837922177950537 -4.6618541570738623 -5.1259069796793151
357 119 2 0.417 4.1047142172356690 -4.5766048431293900 -5.9295617705920476
358 120 1 -0.834 5.1988505006620329 -4.4738237480102754 -2.4871710411642045
359 120 2 0.417 4.7801024884653840 -4.7914321055767823 -3.2863625285345690
360 120 2 0.417 5.0173658087155166 -3.5339062822642586 -2.4792046006381532
361 121 1 -0.834 5.3232626504113645 -0.87042421336051712 3.0721466083156983
362 121 2 0.417 4.9988191159907069 -1.2469216935295224 3.8886924064183033
363 121 2 0.417 4.6095145641423700 -0.99795657428202456 2.4479886425208592
364 122 1 -0.834 4.7959348519258658 -1.4793654892629902 5.6323204955635546
365 122 2 0.417 4.4727602891169758 -0.62666622607594324 5.3455746699382258
366 122 2 0.417 4.7257358322734193 -1.4550338375728666 6.5861307850686890
367 123 1 -0.834 5.2573282196376594 -2.2038397659350299 8.6482698861527840
368 123 2 0.417 4.4355889464954368 -2.5576614155316899 8.3116457526560783
369 123 2 0.417 5.0018349967169691 -1.6858287654330224 9.4109374522656388
370 124 1 -0.834 3.9371031192871584 -1.5653262142758466 10.919090097978582
371 124 2 0.417 4.1481942917442458 -0.63663088590077233 10.837074831320432
372 124 2 0.417 3.6321222100547672 -1.6641323006705775 11.820476808716624
373 125 1 -0.834 3.3791664787283824 -1.9452965209392861 -10.871352190957754
374 125 2 0.417 3.6760622793348419 -1.1494604009650360 -10.432878983422121
375 125 2 0.417 2.4245492835935099 -1.9049962809301779 -10.822814562173113
376 126 1 -0.834 5.7612292395996105 -1.3326312814537831 -6.8188312924479124
377 126 2 0.417 5.4000552547521332 -1.5528375425506504 -5.9616127933223204
378 126 2 0.417 5.4763268996004912 -0.43299006737031681 -6.9761537084777210
379 127 1 -0.834 4.1154976577993034 -1.6541119088618188 -4.7390983596715959
380 127 2 0.417 3.2109417866329042 -1.3454015514762501 -4.7236843666367241
381 127 2 0.417 4.5008505514320740 -1.3104507981770079 -3.9336952380165249
382 128 1 -0.834 4.6477394874347606 -1.6242687792981090 -1.6779584733393818
383 128 2 0.417 3.6931349141399048 -1.6653010641072532 -1.7063743183536406
384 128 2 0.417 4.8411356192441959 -0.75007939781560928 -1.3408162755883435
385 129 1 -0.834 8.5940187972826561 2.4331025653761924 1.3479433386278983
386 129 2 0.417 8.2542301460921710 2.0526349626035789 0.53786119726036219
387 129 2 0.417 8.0389440050535654 3.1961000275652016 1.5049746976774703
388 130 1 -0.834 7.4033336420365252 1.8856137589307578 4.7324239051211814
389 130 2 0.417 8.3271096586363242 1.6577989366955674 4.6266728865684517
390 130 2 0.417 7.3388071762417821 2.7814423902063385 4.4033959449126998
391 131 1 -0.834 8.1127256561056296 1.6574971331471957 7.4100025622006536
392 131 2 0.417 7.5998472705649931 2.2945502484526359 7.9075606893826551
393 131 2 0.417 7.8133089576120076 1.7619595223019169 6.5075784657164837
394 132 1 -0.834 7.5526564146934696 0.52855676303698995 11.092831656800360
395 132 2 0.417 8.0654763388309192 1.1394756063607450 11.622207602872356
396 132 2 0.417 8.1059605835434425 0.34696206174017463 10.334010293636304
397 133 1 -0.834 7.6521152712860365 1.9663353246086364 -10.457903279495968
398 133 2 0.417 6.8613706639926342 1.4274798072054398 -10.429571364620088
399 133 2 0.417 7.5901070476448771 2.5228833803168720 -9.6824413256334658
400 134 1 -0.834 7.9695736366306988 1.0386790276265936 -7.4151489153880910
401 134 2 0.417 7.9916694927163494 1.9805108825490811 -7.2451208877070599
402 134 2 0.417 8.7561792805490946 0.70024998797576776 -6.9889455061140877
403 135 1 -0.834 8.0402291365449106 1.8713954131053423 -3.9219689338511774
404 135 2 0.417 8.8101181554861192 1.3427435522637985 -4.1323093924950456
405 135 2 0.417 8.0148847701618422 2.5395988153733056 -4.6059235202749811
406 136 1 -0.834 7.2611980323870009 2.6906933937989455 -1.3885222617734883
407 136 2 0.417 7.5954657239821923 2.3076472327820508 -2.1996854690787897
408 136 2 0.417 7.7583786652390838 3.5011595383594298 -1.2841764576505186
409 137 1 -0.834 7.4187473160260664 5.3000853390704608 1.7906141619640106
410 137 2 0.417 7.1610879532562128 6.2207461701316120 1.7549871086643252
411 137 2 0.417 7.2057952649587680 5.0250495806731950 2.6809892265009014
412 138 1 -0.834 6.8627301117413282 5.0969391349376503 4.7855018252682786
413 138 2 0.417 7.2838503800792003 5.8900798402770196 4.4555631322830100
414 138 2 0.417 7.4750575541360247 4.7510878005380830 5.4329606716704353
415 139 1 -0.834 8.7248917169126141 4.5753283606314001 7.1847676332759454
416 139 2 0.417 9.5519940809005721 4.3208652771610856 7.5927188786917545
417 139 2 0.417 8.6207530701179707 5.4989396750243182 7.4080573154584579
418 140 1 -0.834 7.6539363259867033 4.4461672399362557 11.916622721741080
419 140 2 0.417 8.4941169430625312 4.5982006758405971 11.485048434905996
420 140 2 0.417 7.8852308689174277 4.1352531559072663 -11.622764133606630
421 141 1 -0.834 6.8134875215013935 4.4255366536337775 -9.3236739688832184
422 141 2 0.417 5.8731457020013451 4.5437897321900760 -9.4542399365443544
423 141 2 0.417 7.1343932564849748 5.2940756708023429 -9.0861440025410687
424 142 1 -0.834 7.9746862350918244 3.5553427732666965 -6.1965145815336102
425 142 2 0.417 8.0863027284833269 4.2951125377784747 -6.7928001288321926
426 142 2 0.417 7.5463907830577224 3.9286176938652795 -5.4277559461876237
427 143 1 -0.834 7.0915412256949208 5.0254914998440601 -3.9305723443298808
428 143 2 0.417 7.5474476737859009 5.3983289820233482 -3.1766389769350702
429 143 2 0.417 6.2448919979821751 4.7462401713100304 -3.5856596296825689
430 144 1 -0.834 8.1847561167552811 5.3417515595267941 -1.2332472892025295
431 144 2 0.417 7.7840501501489019 6.2084781870055590 -1.2923546622226461
432 144 2 0.417 8.8337315576755273 5.4238775582937988 -0.53621988844349910
433 145 1 -0.834 6.5266824207754555 7.8233344140717973 1.1185819694129497
434 145 2 0.417 6.8618994526792605 8.6667508510823748 1.4230869041873664
435 145 2 0.417 6.6095252487650473 7.8627645292085360 0.16647150740184749
436 146 1 -0.834 7.8104874694520898 7.7498575163088139 4.4099312245927349
437 146 2 0.417 8.7279497158598360 7.9780982463185461 4.2595510544202453
438 146 2 0.417 7.3295792244373379 8.2426551599092299 3.7459961808281239
439 147 1 -0.834 7.9076448301117281 7.1565163887696368 7.0982767687699502
440 147 2 0.417 7.7561324901540161 7.3342765649745916 6.1698962807177038
441 147 2 0.417 8.7421574345081172 7.5827411623624732 7.2902485257533316
442 148 1 -0.834 7.7957460083422303 8.3781757915907349 10.852112129653221
443 148 2 0.417 7.1006816903815801 7.7523240314108435 10.648052902521446
444 148 2 0.417 7.5518374482808666 9.1704124416786321 10.374826361390353
445 149 1 -0.834 8.1271139298180692 8.5277325705768270 -10.725903718377783
446 149 2 0.417 8.4649919027039662 8.0094280362618502 -11.456413051067694
447 149 2 0.417 7.7452091758162727 9.3016754176381937 -11.138327321428537
448 150 1 -0.834 8.8323883818856803 6.3521172418278145 -7.1693020026092693
449 150 2 0.417 9.5636943079027379 6.9698828966040489 -7.1678058905768882
450 150 2 0.417 8.0653126654313514 6.8901191708939384 -7.3618656792132091
451 151 1 -0.834 7.1713043738990754 7.9290062144210056 -5.0128949244989984
452 151 2 0.417 6.4923952968388869 8.2951635115423006 -4.4459237622251839
453 151 2 0.417 6.8865783531210543 7.0307994746108546 -5.1774784766891866
454 152 1 -0.834 6.8342140454911995 7.4755836709536503 -1.8195699226293771
455 152 2 0.417 5.9959317615185830 7.5965637550750200 -2.2657667756255333
456 152 2 0.417 7.1810258428654308 8.3612135147270230 -1.7180152229843599
457 153 1 -0.834 7.5237309985916401 10.404001054123118 1.6007109312692147
458 153 2 0.417 8.4590392945282336 10.475719250569048 1.7886707457262208
459 153 2 0.417 7.1657385359729746 11.259748034672775 1.8315777803151068
460 154 1 -0.834 8.7764644048051874 10.485425063707531 4.2703595220793975
461 154 2 0.417 8.7360037010758909 11.439993970065400 4.3197066037406167
462 154 2 0.417 8.8022854043066321 10.198385936952127 5.1817885185987365
463 155 1 -0.834 6.2915864453805517 10.749224324429798 6.4047439431580022
464 155 2 0.417 5.5008299692652409 10.617544717337038 6.9268920797606315
465 155 2 0.417 6.9222574121003966 11.128401803736429 7.0148583348283884
466 156 1 -0.834 7.5044322641432606 10.948752512336542 9.2506855926383125
467 156 2 0.417 8.3873699267536352 10.814399962080556 9.5936789980907200
468 156 2 0.417 7.3253684864845194 11.875178942116124 9.4037582346630053
469 157 1 -0.834 7.7699173412518432 11.240693441257168 -11.465172563456550
470 157 2 0.417 7.5405135522323539 12.048445889031928 -11.006714403209180
471 157 2 0.417 7.2805655580556268 11.282357500617232 12.127956729140944
472 158 1 -0.834 7.2869642434087716 10.379819110694418 -6.9668520030608265
473 158 2 0.417 7.3970226217532646 11.329160800860153 -6.9231311994377966
474 158 2 0.417 7.3716373644146094 10.085949719977918 -6.0611852631509198
475 159 1 -0.834 7.8972280112967734 11.366312309315598 -4.5235467274858072
476 159 2 0.417 8.1869541882434120 -12.170051104001658 -4.7734333528427539
477 159 2 0.417 8.7044722824522545 10.892459830088420 -4.3296872045912140
478 160 1 -0.834 7.9523419004211133 10.511734499438766 -1.4002917072484549
479 160 2 0.417 7.3743384115203741 11.002794259104157 -1.9834265795172619
480 160 2 0.417 7.5862065314080205 10.648234450283921 -0.52789635250559175
481 161 1 -0.834 7.1414067414447917 -11.143553389593320 2.0771739476652695
482 161 2 0.417 6.3115978745669912 -10.673876594599072 2.1624145054703376
483 161 2 0.417 7.5402101470925773 -11.083723728998939 2.9445309994939199
484 162 1 -0.834 8.1724959174088401 -11.115585661664795 4.5373988312124132
485 162 2 0.417 9.1180645254935655 -11.045350234118100 4.6693533389871007
486 162 2 0.417 7.8105258951915442 -11.162501404416611 5.4215417020755217
487 163 1 -0.834 7.2248607748555536 -10.452172310619018 7.2993625654929657
488 163 2 0.417 7.1670139415641012 -9.5299475270361320 7.0491622608895534
489 163 2 0.417 6.5892590842749925 -10.548067000101355 8.0077033729156497
490 164 1 -0.834 7.9036134000456908 -10.819200835092296 10.251988952041289
491 164 2 0.417 7.8507235044496815 -9.8641818658322222 10.212158972160850
492 164 2 0.417 8.6748546438759746 -11.037927901610862 9.7301868686923427
493 165 1 -0.834 6.5590608331540201 -10.646877202153792 -10.205750590524648
494 165 2 0.417 7.1914979838451156 -9.9282361311228371 -10.210573603401825
495 165 2 0.417 6.5529830510956355 -10.953961206921750 -9.2998838925050560
496 166 1 -0.834 6.7645700321174154 -11.231711684130595 -7.4493071240891453
497 166 2 0.417 5.8795730299076441 -11.159471374120846 -7.0915269629714306
498 166 2 0.417 7.3075250774517890 -10.722132356972828 -6.8489233067860953
499 167 1 -0.834 8.1960262739003138 -10.045252162830471 -5.6625578711019946
500 167 2 0.417 9.0151467575515927 -10.527428355440060 -5.5485721152224983
501 167 2 0.417 8.3103423791125710 -9.2526682785449239 -5.1394186788596841
502 168 1 -0.834 7.6078921571309372 -10.981425879709333 -0.63379982273130908
503 168 2 0.417 7.9553780084168855 -10.109215462035708 -0.82074251570884282
504 168 2 0.417 7.3602806751964645 -10.947320471921024 0.28948635997360300
505 169 1 -0.834 7.3636397000242031 -7.4588395869716662 1.5512309600389060
506 169 2 0.417 7.2964452266598556 -7.7033767089166005 2.4737061622748078
507 169 2 0.417 7.5258968751185442 -6.5168806003632458 1.5633502289128507
508 170 1 -0.834 7.5097767263180115 -7.3282961330829641 4.2903025906290466
509 170 2 0.417 7.7096925304342667 -6.3932507509996110 4.2587145436942588
510 170 2 0.417 7.2048782423490563 -7.4789770091919845 5.1836632054137226
511 171 1 -0.834 7.5074896759432015 -7.5705312491295045 6.9061249181203888
512 171 2 0.417 6.8107700075058446 -7.6484166603644175 7.5571161364400439
513 171 2 0.417 8.2888301753341089 -7.3583879030908035 7.4143209676358106
514 172 1 -0.834 7.5955000285109753 -8.2434469805450643 9.5170036903646533
515 172 2 0.417 6.8302187954292402 -8.1819511580750319 10.087824939190964
516 172 2 0.417 8.2559758364811948 -7.6974763269594737 9.9406176095285659
517 173 1 -0.834 7.8260749780523762 -7.6851141227430704 -11.582658141125066
518 173 2 0.417 7.7083162274541532 -6.9743344717407316 12.201125133616399
519 173 2 0.417 8.7272697373682337 -7.5900510957442417 -11.278401626520221
520 174 1 -0.834 7.3321035353061941 -7.2247113422127036 -8.4013686619998769
521 174 2 0.417 7.8971429985940826 -7.9770513222246464 -8.5745418683655714
522 174 2 0.417 7.8920125121131726 -6.4642649686055194 -8.5496395308806150
523 175 1 -0.834 7.8139992299189434 -8.0728959462821912 -3.3863359757069982
524 175 2 0.417 7.6654495520805233 -7.1542991325855265 -3.1641043688630606
525 175 2 0.417 8.6059814969099069 -8.3112294987021293 -2.9070425305580692
526 176 1 -0.834 6.3524326483364622 -8.1344698181381467 -0.78833955837976910
527 176 2 0.417 6.8540000649850601 -7.8642451651478638 -1.9780670933446945E-002
528 176 2 0.417 6.9856429035343783 -8.1246549734183198 -1.5043768769151349
529 177 1 -0.834 7.9876335287373852 -4.7063870627336186 0.81312419395370461
530 177 2 0.417 8.1738481140410109 -3.9920594670422913 0.20361191823314753
531 177 2 0.417 8.0328778898616306 -4.3005590745268147 1.6781031484806221
532 178 1 -0.834 7.4928386724666307 -4.6115436862297345 3.8059505109934633
533 178 2 0.417 6.5499494691663376 -4.5889993024259432 3.9699526483534453
534 178 2 0.417 7.8246703201191723 -3.8094538491640679 4.2077858639580574
535 179 1 -0.834 8.7387358908197541 -3.3979729772231000 7.3864144994762544
536 179 2 0.417 8.4991624874680340 -2.9300990253323826 8.1865042129138317
537 179 2 0.417 8.3741559395389906 -2.8659465790395573 6.6800425218610853
538 180 1 -0.834 7.2360466486493067 -5.6430365174723764 10.659696310821085
539 180 2 0.417 7.5136312377041783 -4.7291167822570355 10.595333949901338
540 180 2 0.417 6.2851981465288080 -5.5980849816044644 10.753496553029295
541 181 1 -0.834 8.2842352257283238 -4.0575367027194051 -10.282567066940747
542 181 2 0.417 7.9929465697998472 -3.6191935844959149 -9.4829101219740437
543 181 2 0.417 7.8739482018768534 -3.5615918807215423 -10.990122924518507
544 182 1 -0.834 7.6185940554512115 -3.9478982920256120 -6.8191083150257921
545 182 2 0.417 6.9271616473849562 -3.2925827429854668 -6.7246215103284834
546 182 2 0.417 8.0039305412080282 -4.0164579216065910 -5.9463269163145744
547 183 1 -0.834 8.0608201773264003 -3.8968414628296966 -4.2192988756394634
548 183 2 0.417 7.8018115579640979 -4.4032726128823079 -3.4493073007813950
549 183 2 0.417 9.0147545381361649 -3.9640514753236848 -4.2398913375371050
550 184 1 -0.834 7.5840593492402490 -5.5692747661107003 -1.8236432798374160
551 184 2 0.417 6.6982172539881830 -5.2065715372033123 -1.8104088542896386
552 184 2 0.417 7.9209177135281479 -5.4097811551439152 -0.94272317536138683
553 185 1 -0.834 8.3189552548002936 -1.5616568084188334 2.3586198958496616
554 185 2 0.417 8.1792751322938297 -0.62524184461480181 2.4960625345774590
555 185 2 0.417 8.5613947420321086 -1.6359044250376482 1.4369521756504524
556 186 1 -0.834 8.1344911031810572 -2.1235638940016677 4.9781855202798031
557 186 2 0.417 7.4885675562472418 -1.4290548252960313 5.1035407156331223
558 186 2 0.417 8.2998749841822175 -2.1310862988199943 4.0367225176446766
559 187 1 -0.834 7.9691959099625951 -0.96552172125263180 8.5763502337929296
560 187 2 0.417 7.0525830229021409 -1.1825015706371391 8.4089747271147068
561 187 2 0.417 8.1023489796679602 -0.12776659613243779 8.1356716543692400
562 188 1 -0.834 7.8286126876220568 -3.0935524627169912 10.799320845615254
563 188 2 0.417 7.5514493822619411 -2.5859370436947420 10.037230897818596
564 188 2 0.417 7.4442531045851030 -2.6362647007743476 11.545589305155897
565 189 1 -0.834 6.8348196218479744 -2.0498346944001495 -11.477954325558544
566 189 2 0.417 7.1732857468167861 -1.7278857905145739 -10.643050986521345
567 189 2 0.417 6.0597220566308643 -1.5159568035869497 -11.645164259759129
568 190 1 -0.834 7.5077790845289574 -1.5168892826545792 -8.7193387433612326
569 190 2 0.417 7.9229587505829970 -0.65844571135051277 -8.6420439842763983
570 190 2 0.417 6.8164925811281751 -1.5100015729329601 -8.0591595785349686
571 191 1 -0.834 7.5983359659102279 -1.4462901850462757 -3.0339047759373914
572 191 2 0.417 6.7105132587583727 -1.1220054752437798 -3.1818380975855596
573 191 2 0.417 7.6932332456298518 -2.1748866469825177 -3.6453806151623014
574 192 1 -0.834 8.2830990484165952 -2.1504725949848060 -0.58944641907693984
575 192 2 0.417 9.0781240611539875 -2.3634440168822008 -1.0771475597121531
576 192 2 0.417 7.8102811406934878 -1.5413928870722855 -1.1544474239835945
577 193 1 -0.834 11.297542900328496 2.1985394878237003 0.64843232664268557
578 193 2 0.417 11.493705942087102 2.3356677715872372 1.5745251377799250
579 193 2 0.417 10.359811027826058 2.3760395658002573 0.57361483128640200
580 194 1 -0.834 10.108730136674641 1.8951796686369751 4.2345474502474048
581 194 2 0.417 9.9401257531703475 2.7940361077972589 3.9542589138367377
582 194 2 0.417 11.056831229070381 1.8580192516033447 4.3617025602662123
583 195 1 -0.834 10.788475283507761 1.3406475186605791 7.2176068500564430
584 195 2 0.417 9.8384585913436133 1.2298945656674127 7.2291856242916701
585 195 2 0.417 10.923374632643569 2.2697809066917367 7.4045782726014284
586 196 1 -0.834 9.9951362353504400 1.7257986383653885 10.485154858473713
587 196 2 0.417 10.142498388492392 2.6673724798949126 10.403576082013783
588 196 2 0.417 10.854234786086598 1.3344747605098233 10.326219957513830
589 197 1 -0.834 9.8667877537155046 0.89314852634873920 -10.029421226348909
590 197 2 0.417 9.0903121130593210 1.2112590764056743 -10.488576164697642
591 197 2 0.417 10.600222017293532 1.3077970057869177 -10.483938354199294
592 198 1 -0.834 11.175879255085450 1.2801150474381739 -7.6956566982928019
593 198 2 0.417 11.936986323861518 1.7480168043869770 -8.0372938972382961
594 198 2 0.417 10.762418666711104 0.89810524037610862 -8.4699717822021494
595 199 1 -0.834 10.314623670314514 0.86693343328922801 -5.3664484485389119
596 199 2 0.417 11.006066503885449 1.1300275692825927 -4.7601314658398461
597 199 2 0.417 10.600892349149603 1.2025635142290600 -6.2160646514719362
598 200 1 -0.834 10.888746086601422 0.94157132581051206 -1.6831181290451225
599 200 2 0.417 11.396544217292963 1.3758532326005630 -2.3675684807149677
600 200 2 0.417 11.017975086333449 1.4867586554613887 -0.90689931890432152
601 201 1 -0.834 11.149812693100259 5.0062628951371559 7.7597261030436349E-002
602 201 2 0.417 10.902238950455432 5.9280135200492206 0.13092668468242319
603 201 2 0.417 11.706446759323450 4.8619350207521572 0.84218995063409208
604 202 1 -0.834 10.224951404934409 4.3973849157837215 3.2188032316534105
605 202 2 0.417 9.8121215138684406 3.9258583066465609 2.4970033023668563
606 202 2 0.417 10.030351508742909 5.3182454493283835 3.0472784283097214
607 203 1 -0.834 11.511990333183876 3.8105410640006387 7.3560246635395128
608 203 2 0.417 12.010670231051670 4.0269078894334784 8.1423227980372843
609 203 2 0.417 11.941782242195892 4.3008640742069773 6.6559273412978106
610 204 1 -0.834 10.391795646786818 4.5752289736260572 10.761521461340509
611 204 2 0.417 10.555582393727400 4.7731639695451014 11.682258469892437
612 204 2 0.417 10.161221184932572 5.4178501683806157 10.371522820713357
613 205 1 -0.834 11.215788987395296 5.1037029687775677 -10.789693339782335
614 205 2 0.417 11.044988096023566 4.5964119429335186 -9.9977060478358570
615 205 2 0.417 11.100157442715179 6.0147534098868727 -10.521569413902091
616 206 1 -0.834 10.257868186425091 4.3246676656847187 -8.3898211802062530
617 206 2 0.417 9.7387233112424862 4.9485868545094931 -7.8848712377487056
618 206 2 0.417 10.077452448706625 3.4773237201090348 -7.9839487871074848
619 207 1 -0.834 9.8633545232532658 5.2981346622456895 -4.3143343155964304
620 207 2 0.417 9.5689976050936245 5.3717706259020641 -5.2208070121449577
621 207 2 0.417 9.8285450018389842 6.1925491584170480 -3.9765695953288334
622 208 1 -0.834 11.580091091222322 4.1264894141483914 -2.3438796416770851
623 208 2 0.417 11.333112318298037 4.3123322915292341 -1.4393217879984952
624 208 2 0.417 10.926523935449588 4.5851508263425735 -2.8709030584805442
625 209 1 -0.834 9.8325846617455230 8.3685393242767407 2.8370602341737214
626 209 2 0.417 9.7754196368521544 9.3128321289826470 2.9783940903780826
627 209 2 0.417 10.446384344692737 8.0632845712849388 3.5052776276841007
628 210 1 -0.834 10.888748852526422 7.2430465600104945 4.8266422438982461
629 210 2 0.417 10.883465447556301 7.5657661807241041 5.7270622192644041
630 210 2 0.417 11.274341700493745 6.3689745005073526 4.8879707885766921
631 211 1 -0.834 10.367580645671220 8.5803260125204304 7.3301363075817321
632 211 2 0.417 10.189459617804639 9.4939170050360104 7.1097811446602996
633 211 2 0.417 11.313234501556105 8.5492886169332944 7.4758087652572218
634 212 1 -0.834 9.7000211577473454 6.8356016712826051 9.6025904079565123
635 212 2 0.417 9.8861177942694169 7.5196857010903679 8.9604618522629078
636 212 2 0.417 8.9052080871972841 7.1330446457896439 10.045585735018978
637 213 1 -0.834 11.010878025348118 7.7812218782233638 -9.7349682207926964
638 213 2 0.417 11.020484384584398 7.8706434073652121 -8.7826849079135147
639 213 2 0.417 10.498731832284840 8.5300936523924840 -10.040488011941481
640 214 1 -0.834 11.391981383742849 7.4269421713564858 -7.0139505776077291
641 214 2 0.417 12.200791853008251 7.9112638232317645 -7.1757843266574355
642 214 2 0.417 11.407519220196862 7.2422083255782077 -6.0747610430289489
643 215 1 -0.834 9.9001521136821040 8.2141704187583748 -4.4078372265291641
644 215 2 0.417 8.9671388785390853 8.1133166552589007 -4.5928961939853519
645 215 2 0.417 10.045827613184386 9.1602414391487770 -4.4210005552202150
646 216 1 -0.834 10.271813200881803 7.7160013487346921 6.2323045098930080E-002
647 216 2 0.417 10.085075021047023 8.3607028478523997 -0.61916123881915952
648 216 2 0.417 9.9122204338226396 8.1014827400807121 0.86141136237346827
649 217 1 -0.834 10.114436247290941 11.150539858800414 1.4313679201292400
650 217 2 0.417 10.038957219034867 10.853053666451197 0.52606913980581615
651 217 2 0.417 10.916871643762828 11.671223264546914 1.4474994256150375
652 218 1 -0.834 -12.195039153218344 10.757323519734763 4.2309393092139027
653 218 2 0.417 11.996531446981253 10.975735957533628 5.1347786376158711
654 218 2 0.417 11.822342708088696 11.455731927181239 3.7105486167396409
655 219 1 -0.834 10.682210361850107 11.233082795168679 7.3839719954018532
656 219 2 0.417 10.358032373305431 12.131062487615905 7.4319522381640004
657 219 2 0.417 11.400433439228710 11.202432955153824 8.0152327960443994
658 220 1 -0.834 10.099931898622280 10.622064314763753 10.451486889936628
659 220 2 0.417 10.641994380342343 11.329269428314699 10.797594089051119
660 220 2 0.417 10.096421911565043 9.9609900745392554 11.143037704340362
661 221 1 -0.834 10.271403897124614 10.313968817725083 -10.458000420279390
662 221 2 0.417 9.5288511216227576 10.755627057344199 -10.867041218942585
663 221 2 0.417 10.961727739620335 10.975899004692442 -10.434012505336632
664 222 1 -0.834 10.525418946481917 11.068172036520441 -7.7192607902996855
665 222 2 0.417 10.165419758046911 10.634558530965354 -8.4913624106362455
666 222 2 0.417 10.683097779907451 11.968861142492052 -8.0006333544804118
667 223 1 -0.834 10.660019724584394 10.787008038242789 -4.9227468351302921
668 223 2 0.417 10.703486649407074 10.790942757916225 -5.8776584249790824
669 223 2 0.417 10.797733020956453 11.699876046186237 -4.6717865831466137
670 224 1 -0.834 10.312301435272850 11.665355620089775 -1.3983503648489430
671 224 2 0.417 10.263656475173192 -11.799075088330387 -1.2926118901486867
672 224 2 0.417 9.4090277434054670 11.394542062375962 -1.5596905475024452
673 225 1 -0.834 -11.868304989925381 -11.927563098183890 1.2978331409265895
674 225 2 0.417 11.972884607534933 -11.189912914360962 1.0890805756647792
675 225 2 0.417 -11.291629152280894 -11.595855618019366 1.9862081302165338
676 226 1 -0.834 10.896160249614923 -10.763960389176383 3.9038471799558194
677 226 2 0.417 11.075592648826092 -10.453247829232510 3.0171715238072805
678 226 2 0.417 10.612854941235179 -9.9823952527413748 4.3785460737328865
679 227 1 -0.834 10.321852452083409 -10.508620910738367 8.6031105083275001
680 227 2 0.417 9.9308464779559333 -9.6397965973373534 8.5183128630779308
681 227 2 0.417 11.257176323010899 -10.339944778993900 8.7178389662310760
682 228 1 -0.834 11.012290658838284 -11.190903484467148 11.260874109473669
683 228 2 0.417 10.408539210109769 -11.020373654394442 10.538838261877718
684 228 2 0.417 11.573293163809129 -10.415815299745523 11.291849830956126
685 229 1 -0.834 11.342561456091000 -11.506099785587244 -10.379053588455811
686 229 2 0.417 11.161123034382809 -11.289397998203318 -11.292865622997189
687 229 2 0.417 12.203208183539699 -11.123102395786360 -10.208627035543550
688 230 1 -0.834 11.410862284601304 -10.601589922026001 -7.5192405950486121
689 230 2 0.417 10.957341070572340 -9.7882670105320493 -7.7377728582609260
690 230 2 0.417 -12.095749622877568 -10.335926935693713 -7.3645874483368710
691 231 1 -0.834 10.761061635228556 -11.001041207246420 -4.8990446777740608
692 231 2 0.417 11.580749413564138 -10.770005818895456 -4.4635373926721797
693 231 2 0.417 10.947511100829781 -10.894677461602527 -5.8319800187219855
694 232 1 -0.834 10.687031689135493 -10.341530927485461 0.27136706957198425
695 232 2 0.417 9.7468779478770315 -10.424091742466047 0.42701620907318250
696 232 2 0.417 10.894412373864720 -9.4433932939260821 0.52979896153889516
697 233 1 -0.834 11.664074965878246 -7.7526392831882696 0.96232438765039019
698 233 2 0.417 11.268505983121511 -6.8827328345129013 0.93889469636358802
699 233 2 0.417 -11.923220455036869 -7.6289700236436007 1.4290333487542615
700 234 1 -0.834 9.8742665590775012 -8.5619261701635061 4.9525763119065482
701 234 2 0.417 10.080514186216741 -8.3306695888209834 5.8568679185717913
702 234 2 0.417 9.0205881812699626 -8.1616302546813468 4.7904948283490443
703 235 1 -0.834 10.441838221477560 -7.5645107315460107 7.5357366174155889
704 235 2 0.417 10.350146185753168 -7.5063044592781036 8.4854553128477459
705 235 2 0.417 10.845594384419147 -6.7352382164663540 7.2816459709522858
706 236 1 -0.834 10.637384698745944 -7.9588210381642570 10.650990468122639
707 236 2 0.417 10.781540311432677 -7.0227492939875953 10.780411676141199
708 236 2 0.417 10.506520832032065 -8.3063492062872299 11.532677952864134
709 237 1 -0.834 10.308907129226467 -7.4211728488650861 -10.565385579137226
710 237 2 0.417 11.108626557510215 -7.8201356069979520 -10.226212240490844
711 237 2 0.417 10.199726621853682 -6.6237247033795379 -10.048249163796472
712 238 1 -0.834 10.489474711092099 -8.0366497025524311 -7.1646353957937725
713 238 2 0.417 11.434264364355348 -7.9040656362336215 -7.1050117725805295
714 238 2 0.417 10.161258151138080 -7.2432652694939161 -7.5866413568326729
715 239 1 -0.834 10.630487929785911 -6.3029184163943830 -3.1917564833888834
716 239 2 0.417 11.175582221690808 -5.5994591170082320 -2.8427891109314567
717 239 2 0.417 10.279830840886111 -5.9523722465296247 -4.0099441078354134
718 240 1 -0.834 9.1432893306678320 -7.8886463814839543 -0.80836973789796795
719 240 2 0.417 9.8979286599950509 -7.3413583266994733 -1.0199265097649663
720 240 2 0.417 8.8155988011186128 -7.5373668846851682 1.8972773987255720E-002
721 241 1 -0.834 11.202383733233662 -5.1284824304565477 1.5582574196241767
722 241 2 0.417 10.952425034330963 -4.2460824791015126 1.2865535832664459
723 241 2 0.417 11.255067582419960 -5.0790309600592316 2.5128379369774616
724 242 1 -0.834 11.392817637762480 -4.6340338846633777 4.0824972974844469
725 242 2 0.417 11.309343619981558 -3.7783532164239078 4.5017522108209134
726 242 2 0.417 -12.103218484172638 -4.8756346690097256 4.2122482215407731
727 243 1 -0.834 10.993839731909270 -4.9221385914587055 7.7827319368291743
728 243 2 0.417 10.210779038636479 -4.5761337600729464 7.3560838297094424
729 243 2 0.417 11.432644480294311 -4.1499899103083795 8.1400578482777455
730 244 1 -0.834 10.680833708377184 -5.2458007035165792 10.777609127076387
731 244 2 0.417 10.435046196434142 -4.6475584932106830 10.072891625675183
732 244 2 0.417 10.350342809096729 -4.8275243899740499 11.572760490668294
733 245 1 -0.834 11.099131286586985 -4.0655038926586560 -11.087249302002853
734 245 2 0.417 11.346961860050572 -3.1547924301867036 -10.931953973744349
735 245 2 0.417 10.217036386033277 -4.1389754109570047 -10.722618636238058
736 246 1 -0.834 9.9039393825052890 -5.3993204876803871 -8.1433857743020095
737 246 2 0.417 9.1632476301275645 -4.8040905708010833 -8.2529716949828060
738 246 2 0.417 10.506314968831694 -4.9282560483698745 -7.5674630824283691
739 247 1 -0.834 10.606628649503580 -4.3934429222134446 -5.0730577090720983
740 247 2 0.417 10.503950927234166 -3.4435379439423386 -5.0275624609100618
741 247 2 0.417 11.545661955382423 -4.5266795800357249 -5.2030940250097331
742 248 1 -0.834 -12.060229632721672 -4.4802017016899010 -2.0523851347120687
743 248 2 0.417 11.955934653382544 -3.6144644020102481 -1.9642246000506323
744 248 2 0.417 -11.608008992548241 -4.6218921313759180 -1.2206007186903820
745 249 1 -0.834 11.052236895013397 -2.5386493905869267 0.39769397687992014
746 249 2 0.417 10.897851717234989 -2.0365890439394101 -0.40096842063639559
747 249 2 0.417 11.740195003565658 -2.0567608841449951 0.85570173689754692
748 250 1 -0.834 11.098328246230432 -2.2901001439154167 5.8029081024721947
749 250 2 0.417 11.023134264648398 -1.6972204369166894 6.5489647478838862
750 250 2 0.417 10.194210694994398 -2.4810519358709748 5.5551524432110364
751 251 1 -0.834 11.782994510894506 -2.1961846885644847 8.9159966218806517
752 251 2 0.417 11.015810677050538 -1.8626043504044438 9.3785051332417826
753 251 2 0.417 -11.884706183943466 -1.8491137690743784 9.4048796223016620
754 252 1 -0.834 10.490394423196500 -0.93571308527593444 11.274173717094383
755 252 2 0.417 10.278227197127855 -1.1872281662709233E-002 11.397722241009530
756 252 2 0.417 9.6566369265450103 -1.3912446815724844 11.386483118094286
757 253 1 -0.834 11.443638709422418 -1.5019906393940277 -10.351172185594665
758 253 2 0.417 -12.097324573454276 -1.1190518556578364 -10.430388514376297
759 253 2 0.417 10.845786049570362 -0.76211890718491637 -10.453329011043190
760 254 1 -0.834 11.667405305025605 -1.6295257779875705 -7.4062553553649284
761 254 2 0.417 11.937936578326509 -0.71306038843950315 -7.3804673750893528
762 254 2 0.417 11.282095543584621 -1.7423888116183244 -8.2746287332260593
763 255 1 -0.834 10.127298804996370 -1.8261729812450316 -4.9372855148668098
764 255 2 0.417 10.918497882635890 -1.6412369901883423 -5.4408366033913573
765 255 2 0.417 9.6724958672768633 -0.98602798572429329 -4.8864458222716669
766 256 1 -0.834 10.687926756341371 -1.7835955279499278 -2.0748420006711492
767 256 2 0.417 10.350602323805798 -1.8961671771646436 -2.9621417532957248
768 256 2 0.417 10.929757712536926 -0.85932131185660476 -2.0247524599403293
769 257 1 -0.834 -9.2424599876027411 1.4751449416181162 1.0755490280913560
770 257 2 0.417 -9.6663303016756021 1.8074201364160274 0.28411226386455429
771 257 2 0.417 -9.7277031006129988 1.8789378652073738 1.7941743798118170
772 258 1 -0.834 -11.355853076832220 1.5606789861656218 4.1643119083108990
773 258 2 0.417 -10.493691264095714 1.9726610759444725 4.1060644503376276
774 258 2 0.417 -11.570117181414277 1.5852300265362342 5.0962025348891329
775 259 1 -0.834 -11.218422509097421 0.38028514941140373 7.1068108771357981
776 259 2 0.417 -12.174114054298254 0.42385702623365062 7.0721675230571481
777 259 2 0.417 -11.001238133090144 0.60868511659971491 8.0099146374018542
778 260 1 -0.834 -10.445466966842059 1.4564920128590788 9.6248279794197540
779 260 2 0.417 -11.009846759327488 2.0785012000851371 10.084202576933031
780 260 2 0.417 -9.5585070208408052 1.7802134537470162 9.7779242984444075
781 261 1 -0.834 12.071707834469921 1.8105101703953093 -11.351590934754858
782 261 2 0.417 -11.965994802211606 2.4026953940096440 -12.003314231873711
783 261 2 0.417 -11.584627150379442 1.4555890605003492 -10.886749273099440
784 262 1 -0.834 -10.883551216304308 2.3305423781063972 -8.3843084286491223
785 262 2 0.417 -10.122351700917434 2.3003718134553144 -8.9640584047624632
786 262 2 0.417 -10.929999338178131 3.2419969266283197 -8.0979080481446708
787 263 1 -0.834 -12.049083974098718 2.1226448161596903 -4.0406044446197429
788 263 2 0.417 -12.039499914101476 2.9829237010951761 -3.6207552027148324
789 263 2 0.417 -11.405636313190767 2.1930971870583660 -4.7448370561245179
790 264 1 -0.834 -10.735267492114291 2.3619813484572130 -0.97650064782343160
791 264 2 0.417 -10.546623551735298 2.3852457717172149 -1.9147528689072195
792 264 2 0.417 -11.643562367815797 2.6539222145276753 -0.90792259380886575
793 265 1 -0.834 -10.431935792196253 4.8219464113057739 1.9357605255760817
794 265 2 0.417 -10.549516034842968 5.6114274942768825 1.4083437016408724
795 265 2 0.417 -9.5092395539197216 4.5963349790067989 1.8285591567119504
796 266 1 -0.834 -12.097963934798157 4.9619399679093403 5.0302401950861713
797 266 2 0.417 11.961215088422003 4.4801188234962002 4.2833984787204598
798 266 2 0.417 -11.173624914283272 5.0856022827128777 4.8203211462815991
799 267 1 -0.834 -10.023458083414301 5.7441199839583339 7.8116820528749171
800 267 2 0.417 -10.319341054329071 6.0534166903717876 6.9560753588124902
801 267 2 0.417 -9.9231710960144053 6.5389225624604572 8.3332109412067759
802 268 1 -0.834 -11.014262204807764 3.4565817464113446 11.097646363053610
803 268 2 0.417 -10.134360180836579 3.8027387253582825 10.951969411761576
804 268 2 0.417 -11.590532981605376 4.2116940587632827 10.990509126092871
805 269 1 -0.834 -10.395342028680924 5.0958999743455928 -10.647664328256829
806 269 2 0.417 -11.325232305051815 5.0356556452326746 -10.430987853482558
807 269 2 0.417 -10.378473090476993 5.4180026207513867 -11.547512273246566
808 270 1 -0.834 -11.207697438167463 4.8129789311069864 -7.2231874468684572
809 270 2 0.417 -12.129418859958509 5.0561446139347694 -7.1421067999395671
810 270 2 0.417 -10.812734037998791 5.5290188547040930 -7.7182144565782798
811 271 1 -0.834 -10.539941663273737 4.6784117272494834 -4.5892495642504505
812 271 2 0.417 -10.607710152536464 4.6824973137280894 -5.5435371204127328
813 271 2 0.417 -11.024919834516947 5.4535256766318021 -4.3104027624209547
814 272 1 -0.834 -10.348528880357200 5.7115645725668642 -1.7199276266433374
815 272 2 0.417 -10.284905841316363 6.6660381603222207 -1.7342900491627700
816 272 2 0.417 -11.209654294449276 5.5223665512399087 -2.0892894139613105
817 273 1 -0.834 -10.851554392118690 7.6907758780008022 1.4534695973005287
818 273 2 0.417 -10.740601877852180 7.9854443338510821 2.3575188441365329
819 273 2 0.417 -11.695383912767969 8.0530203140666483 1.1857706831821528
820 274 1 -0.834 -9.7942969364651429 6.3442021508609798 5.2256512733888565
821 274 2 0.417 -8.8702339846677045 6.4941939340682309 5.0255135056244651
822 274 2 0.417 -10.232805459072532 7.1471213337619490 4.9464326111717529
823 275 1 -0.834 -11.415458772378956 8.6391837187537153 7.7658388626380486
824 275 2 0.417 -11.201898119492087 9.5680359120148495 7.8556745493806321
825 275 2 0.417 -11.038415359112081 8.2307768323276971 8.5442822322108789
826 276 1 -0.834 -10.331197568125667 8.1495474846495366 10.024825464015146
827 276 2 0.417 -10.749336283037122 8.0909096971146752 10.883991702274782
828 276 2 0.417 -9.4008088690828497 8.0157976160035176 10.202081892193604
829 277 1 -0.834 -10.908874769245978 8.2786420970029688 -11.774488180528884
830 277 2 0.417 -10.366117434027771 8.9642200031293697 -11.384818564446014
831 277 2 0.417 -11.626915122616690 8.1603873711313142 -11.153709741196245
832 278 1 -0.834 -10.314998127764051 7.0711902881143418 -8.5589265743136327
833 278 2 0.417 -10.371429010292074 6.6641807950116423 -9.4235674408133239
834 278 2 0.417 -9.3764480922438249 7.1611736676110569 -8.3978091567594273
835 279 1 -0.834 -11.512679166948626 7.4945282205286912 -4.1081069837858397
836 279 2 0.417 -10.769989962500880 7.9632350764259838 -3.7270930354432168
837 279 2 0.417 12.132785564707058 7.8833746188808682 -3.6906481604519450
838 280 1 -0.834 -10.566005210228935 8.3994513449862858 -1.3455686324834404
839 280 2 0.417 -10.407423538397540 8.1245015077709777 -0.44240782710355875
840 280 2 0.417 -10.814909624537258 9.3203169957720657 -1.2749637761299557
841 281 1 -0.834 -9.9386142707886034 10.387289941541836 0.80740871332681263
842 281 2 0.417 -10.624009951372786 10.815259042898136 1.3196090738507280
843 281 2 0.417 -9.7804908911036854 10.980176416415818 7.4439665748049319E-002
844 282 1 -0.834 -10.382707274527213 8.8047088646615101 3.7955985566972421
845 282 2 0.417 -9.7904725777773418 9.3146498234038280 3.2437903630624074
846 282 2 0.417 -11.028798559854868 9.4379691034324118 4.1043193383357313
847 283 1 -0.834 -10.822735081177925 11.082160115199709 8.6595282412255710
848 283 2 0.417 -10.759999717304950 12.026657881915991 8.5207397590389213
849 283 2 0.417 -10.722288867917705 10.970624442969259 9.6035787441446647
850 284 1 -0.834 -10.820915170306892 11.497532627213225 11.417876205412171
851 284 2 0.417 -11.540961776419085 12.122451653932915 11.497142182161488
852 284 2 0.417 -10.762155245749877 11.087790463056352 -12.133712844408002
853 285 1 -0.834 -10.538133888016835 11.106031672084324 -10.129846005941422
854 285 2 0.417 -9.9887171310430887 11.844786439097385 -9.8697371414789909
855 285 2 0.417 -11.043794908647550 10.894892715933951 -9.3465910835755075
856 286 1 -0.834 -11.167539998179995 10.846782976127969 -6.6363547633795763
857 286 2 0.417 -12.068535687246955 11.135132302284958 -6.4937523987864365
858 286 2 0.417 -10.896812321401786 10.479442304587486 -5.7963974096654400
859 287 1 -0.834 -10.506226962398239 10.517600287186449 -4.0833098565438641
860 287 2 0.417 -10.831419059634111 10.495905557372122 -3.1838358777131184
861 287 2 0.417 -9.7175591170299818 11.056090151425018 -4.0409696180639152
862 288 1 -0.834 -11.283116270408444 11.100834940851698 -1.5634414799379384
863 288 2 0.417 -11.098443785144424 12.002716657260491 -1.8237863335339810
864 288 2 0.417 12.198766923526756 11.098594477281370 -1.3481392535333510
865 289 1 -0.834 -10.357243423684718 -10.533958257044754 3.0519504252031693
866 289 2 0.417 -9.4087739555904015 -10.486643570912843 3.1728304838113601
867 289 2 0.417 -10.646479414866551 -9.6224152930551963 3.0710283235728291
868 290 1 -0.834 -10.708140260631692 -11.587813630770816 5.6129794551786176
869 290 2 0.417 -11.249549843421656 -11.061849944535945 5.0241816423214107
870 290 2 0.417 -10.050149865975630 -11.983945705945972 5.0428391044247158
871 291 1 -0.834 -11.173055397172741 -10.420106985426910 8.0314810722494983
872 291 2 0.417 -10.962907206452622 -9.5282744807034092 7.7541409895790467
873 291 2 0.417 -10.986145087833421 -10.959485584126359 7.2639738973464292
874 292 1 -0.834 -10.620838689673979 -10.236602796051102 10.967892310593159
875 292 2 0.417 -9.6894773530865184 -10.321206285792281 11.172473126491482
876 292 2 0.417 -10.652985612091252 -10.194393264224958 10.012844180495980
877 293 1 -0.834 -10.384332528617056 -10.317927690011548 -10.231430003969020
878 293 2 0.417 -10.511826737419138 -9.7203350774331057 -10.968365073098999
879 293 2 0.417 -9.4415583730884904 -10.478590408419812 -10.214214238488813
880 294 1 -0.834 -10.554933450494191 -9.6821485879180411 -7.5326363329775772
881 294 2 0.417 -10.457571098468025 -9.7705725657743709 -8.4808698340457358
882 294 2 0.417 -10.006452343120294 -8.9323399202815423 -7.3048481928317663
883 295 1 -0.834 -11.019767157595462 -10.372608767048296 -4.8992362927802811
884 295 2 0.417 -10.876945010214511 -9.5823857042495852 -4.3780891492224070
885 295 2 0.417 -10.875857225780594 -10.092605583771478 -5.8024639212770479
886 296 1 -0.834 -10.457706025693600 -10.679657087217871 -1.5555389569476850
887 296 2 0.417 -10.802678566153187 -10.737622876707135 -0.66442790125499207
888 296 2 0.417 -10.599259077311160 -9.7679501437343461 -1.8078981905447167
889 297 1 -0.834 -10.079921841348542 -7.3362567552641416 2.0941715276958486
890 297 2 0.417 -9.9767674689981245 -6.7808098392756104 1.3220886960101386
891 297 2 0.417 -9.1863483208245604 -7.5159653145461220 2.3822551911326548
892 298 1 -0.834 -11.360300652873887 -7.7958710903235113 4.6120196942366620
893 298 2 0.417 -11.138722483205672 -7.1133922018409823 3.9792482651233105
894 298 2 0.417 12.114631326090116 -7.9364611735920159 4.4954082107077360
895 299 1 -0.834 -10.252495178115790 -7.8488024973143853 7.1250431078211465
896 299 2 0.417 -10.663691560013232 -7.9059526855304316 6.2631119089999663
897 299 2 0.417 -10.260502106774535 -6.9160321116027950 7.3339361345906227
898 300 1 -0.834 -9.3369973934246620 -7.8180043371411676 9.8799620849064258
899 300 2 0.417 -10.120586321344929 -7.6826466823622068 9.3480403826479943
900 300 2 0.417 -8.6122562289252524 -7.7615157889222539 9.2592203605152310
901 301 1 -0.834 -11.406430896168194 -7.1476904078181063 -11.726601512115336
902 301 2 0.417 -11.260797581443150 -7.6294935691146168 11.873034091553496
903 301 2 0.417 -11.730268720419502 -6.2933681794436493 -12.007712866723221
904 302 1 -0.834 -11.736551437222227 -6.6133059539489594 -6.7494476781673134
905 302 2 0.417 -11.589710230380437 -5.6760485133436935 -6.8729796578459563
906 302 2 0.417 -11.503074946462299 -6.7750532409949855 -5.8367113836135793
907 303 1 -0.834 -11.728970725322641 -7.5906382234993686 -4.1613338611265105
908 303 2 0.417 11.852295944501364 -7.4243613593185467 -3.7192158574212617
909 303 2 0.417 -11.069250035029942 -7.4950946906327083 -3.4762053738140257
910 304 1 -0.834 -11.117604577225212 -7.9364152712197136 -1.2512440712645803
911 304 2 0.417 -10.706639799710670 -7.1042615836881788 -1.0190756152459142
912 304 2 0.417 -11.965042349682829 -7.9176574806456790 -0.80936358164680400
913 305 1 -0.834 -10.321753385315329 -3.8356282335585918 1.3874113773146568
914 305 2 0.417 -10.662784705996133 -2.9416279831234888 1.4175143761132898
915 305 2 0.417 -10.686353392218644 -4.2569268895577483 2.1649113949477155
916 306 1 -0.834 -10.411342023763073 -5.0450078506144136 4.5920887814898261
917 306 2 0.417 -10.487234615631088 -4.8711386776910333 5.5304143247883664
918 306 2 0.417 -9.4955992236094353 -4.8590162672373207 4.3877502024606958
919 307 1 -0.834 -9.4358443491226858 -5.1465803577906675 7.6091389209038960
920 307 2 0.417 -9.4820972320006192 -4.2612834830124333 7.2478148083216096
921 307 2 0.417 -9.1804375836137737 -5.0191808606771451 8.5220840190710945
922 308 1 -0.834 -10.619102947948365 -4.5529709642171081 10.862629622874021
923 308 2 0.417 -11.522891740093760 -4.7202181949386226 11.130284592953677
924 308 2 0.417 -10.556034137493615 -3.5996672404044352 10.816085715510072
925 309 1 -0.834 -10.346639289722706 -4.8958594200775254 -9.5067776213903965
926 309 2 0.417 -11.097426047848050 -4.5413524624499715 -9.0302389967047354
927 309 2 0.417 -10.612339421817435 -4.8695663682053736 -10.425278636756245
928 310 1 -0.834 -11.372845616015239 -3.7465158340129965 -7.1058369690618726
929 310 2 0.417 -12.005356016395602 -3.0423740689351675 -7.2492244443996627
930 310 2 0.417 -10.989424633497096 -3.5531234214055973 -6.2511325026463123
931 311 1 -0.834 -10.763990678773991 -4.8999028773637576 -4.4130162717711441
932 311 2 0.417 -9.9567597584990288 -5.2737921923494522 -4.0594204269262635
933 311 2 0.417 -11.346521141226591 -4.8308680029868167 -3.6574870225461198
934 312 1 -0.834 -10.141643183061626 -5.6784228706298805 -0.48041638469179049
935 312 2 0.417 -9.2181108960708809 -5.4998395134799525 -0.65829583666614966
936 312 2 0.417 -10.363972579274240 -5.0914549833539136 0.24136636578546955
937 313 1 -0.834 -11.161973104313320 -1.2358128614876791 1.5825066196353230
938 313 2 0.417 -11.418023735807580 -0.37732060076248219 1.2467937774824873
939 313 2 0.417 -10.682504309701006 -1.0460436835137057 2.3874030937760069
940 314 1 -0.834 -10.609496354139667 -1.3557744291509262 4.5390650469286280
941 314 2 0.417 -11.207930389808405 -2.0227680906271090 4.8741324438860616
942 314 2 0.417 -11.118008245245488 -0.54650503539808815 4.5551804103714879
943 315 1 -0.834 -10.036168925184326 -2.6735113632301744 6.9691319358372192
944 315 2 0.417 -9.9622758332830070 -1.9327102835136416 6.3682762366380716
945 315 2 0.417 -10.519536382388926 -2.3283624642358727 7.7181240177970931
946 316 1 -0.834 -10.050857021295629 -1.3392184586431541 10.116288362302416
947 316 2 0.417 -9.9739633716088907 -0.39238185934411834 10.229698330407933
948 316 2 0.417 -9.1507414305753798 -1.6423750758204563 10.008357880954696
949 317 1 -0.834 -10.438796272607174 -0.30162064230980729 -10.613758392745707
950 317 2 0.417 -10.129105666121216 -0.81766037806124603 -11.357444293768410
951 317 2 0.417 -9.6420238571895407 2.9806695637195818E-002 -10.202576392056329
952 318 1 -0.834 -10.087131735513179 0.53138019502659772 -6.3632908621266413
953 318 2 0.417 -9.2642702388761542 1.0132301581619818 -6.2858727093541686
954 318 2 0.417 -10.640109351270191 1.0862561831357065 -6.9110950190035654
955 319 1 -0.834 -11.000016327292075 -1.8077350693709828 -4.6990931861096037
956 319 2 0.417 -11.210454572529684 -1.7727669630695453 -3.7664802028829016
957 319 2 0.417 -10.843325526007089 -0.89726685748079615 -4.9445654410187156
958 320 1 -0.834 -10.592608288441296 -0.69200257149602606 -1.3585255230266216
959 320 2 0.417 -10.308090764534120 -1.1080175499459781 -0.54534945580930583
960 320 2 0.417 -11.287651387380905 -9.2497197542365114E-002 -1.0915622348817742
961 321 1 -0.834 -6.8715767749408450 0.60520381705232973 0.73077420774912072
962 321 2 0.417 -6.2087436758243015 0.95884952440549454 1.3228206555775315
963 321 2 0.417 -7.7052815828235417 0.87365676560032191 1.1171863034826228
964 322 1 -0.834 -7.2489207983161679 0.43442737342203364 3.7101751510732477
965 322 2 0.417 -7.6291025612548422 1.2640313727662431 3.9967951632861483
966 322 2 0.417 -6.3398312133093224 0.47230679174539986 4.0077760181747264
967 323 1 -0.834 -8.1108025753484156 0.51346469952780394 7.3123023597457477
968 323 2 0.417 -8.6830417507912188 0.51081542389895818 6.5458382004876814
969 323 2 0.417 -7.7126428559045781 1.3840456350615111 7.3106675821904092
970 324 1 -0.834 -7.7671356569239309 1.9376452064492877 10.639206811359843
971 324 2 0.417 -7.0871847788290303 2.0212186493824937 9.9716633423525742
972 324 2 0.417 -7.9203969075652934 2.8340543080636436 10.938216362369142
973 325 1 -0.834 -8.4415942294261903 1.7037144148721062 -10.715204523601255
974 325 2 0.417 -7.9970504210325863 1.3529334688427346 -11.486090721636772
975 325 2 0.417 -8.0737883217433382 2.5806802687939014 -10.605228592921865
976 326 1 -0.834 -7.7648549223962346 2.2746009584151778 -7.1871052017276105
977 326 2 0.417 -7.5081604707217178 2.2647267023310462 -6.2657244674237580
978 326 2 0.417 -7.7204063313661573 3.1973727831026251 -7.4380264688980864
979 327 1 -0.834 -6.8305748523957313 1.5864790354130884 -4.7710729273947674
980 327 2 0.417 -5.8835853241176039 1.6860169118755868 -4.6803257815393629
981 327 2 0.417 -7.1611002319571275 1.6127183665473932 -3.8730142038318678
982 328 1 -0.834 -7.1773656946703905 1.9181934012394000 -1.6575927122564849
983 328 2 0.417 -7.1545719548656539 2.8738006059942589 -1.6225596472132884
984 328 2 0.417 -7.4140982337778336 1.6517384091726932 -0.76910836116724413
985 329 1 -0.834 -7.7229175801512024 4.8823007595029191 1.7322511747478824
986 329 2 0.417 -7.7385102184371437 4.7785406886280226 0.78211870118258098
987 329 2 0.417 -7.2497036830278763 5.7010361560272313 1.8772165431899090
988 330 1 -0.834 -8.8497554900211206 2.8098855639892641 4.3744237649956261
989 330 2 0.417 -8.5905573034774534 3.4207643260036900 5.0624676867129708
990 330 2 0.417 -8.6800963265298989 3.2800604982825319 3.5586877173639309
991 331 1 -0.834 -7.6175060505301460 3.8304773481616907 7.8226841532490665
992 331 2 0.417 -8.1816054945573686 4.5434635151913989 7.5273816932652799
993 331 2 0.417 -7.1604156941004620 4.1850358514350532 8.5846754089833635
994 332 1 -0.834 -8.2573232388270554 4.5760990316936345 11.156311096416914
995 332 2 0.417 -7.7010793251214684 5.1947329342252822 10.685518357407524
996 332 2 0.417 -7.9695369635386486 4.6381780033058941 12.066585374334940
997 333 1 -0.834 -7.8303079012405510 4.3814236183775659 -10.625427056761026
998 333 2 0.417 -8.7508567086339060 4.5910727845187402 -10.475767040915141
999 333 2 0.417 -7.4100601665886643 4.5243061409964529 -9.7779304926086965
1000 334 1 -0.834 -6.9539228651527019 4.8348908890950444 -7.9017955988928392
1001 334 2 0.417 -6.0089566610414415 4.7417443561918384 -7.7916883943344271
1002 334 2 0.417 -7.1364407996718695 5.7417425541598064 -7.6577028682593253
1003 335 1 -0.834 -7.6694497301336497 5.2399854091923963 -4.4085878145062214
1004 335 2 0.417 -7.7673339453147650 6.1677465798106921 -4.6170078008591373
1005 335 2 0.417 -8.5583483166876384 4.9405199926507404 -4.2202961069940281
1006 336 1 -0.834 -7.6202886247507458 4.5361006023187658 -1.1276453581959160
1007 336 2 0.417 -7.1820219887413295 5.3738095414309299 -1.2688087000823958
1008 336 2 0.417 -8.3933243496855017 4.5710972625691433 -1.6901975795460173
1009 337 1 -0.834 -7.1354817162634401 7.8397987843112116 1.3627061429693870
1010 337 2 0.417 -7.2416197844480124 8.7888074302405332 1.3074856718248749
1011 337 2 0.417 -7.5207475941661812 7.5083106266825475 0.55145352838143846
1012 338 1 -0.834 -6.6892288313904098 6.9899851862594691 5.3272177622130048
1013 338 2 0.417 -5.9989598279314267 7.4151994612960896 4.8196219356257313
1014 338 2 0.417 -6.7322243200528682 7.4926713476611617 6.1407919819925549
1015 339 1 -0.834 -6.4744476392965282 8.9542262209545616 7.3429646491703986
1016 339 2 0.417 -7.1383432353932248 9.6086309162408075 7.1286538182011787
1017 339 2 0.417 -5.6547734603030388 9.4475244988457323 7.3781221422685581
1018 340 1 -0.834 -7.6721745468200400 7.4486276516490948 9.5818750732597753
1019 340 2 0.417 -7.5254667072401658 7.7804840346405735 8.6968439151226011
1020 340 2 0.417 -6.8996040825918028 7.7280071917491400 10.073328988063242
1021 341 1 -0.834 -7.0736279167427378 7.5796679098774957 -10.063434716153182
1022 341 2 0.417 -7.2671962741213116 7.8540651317489507 -9.1677955836612082
1023 341 2 0.417 -7.0005784775858801 8.3984432018707764 -10.554062681785165
1024 342 1 -0.834 -7.9352608931354300 7.8603616566863517 -7.5077014522358940
1025 342 2 0.417 -7.6866753434040698 7.6006269426146318 -6.6213182942444719
1026 342 2 0.417 -7.9211788593891228 8.8173953863556651 -7.4894494221892574
1027 343 1 -0.834 -7.1599798216375472 7.9198756029927395 -4.7109276838744689
1028 343 2 0.417 -6.3148529651076002 7.5237173219573394 -4.5017597782606193
1029 343 2 0.417 -7.0126337349358190 8.8611816860718982 -4.6177773285778692
1030 344 1 -0.834 -7.0199628398536120 7.3171679254032114 -1.5169040547632910
1031 344 2 0.417 -7.6563241462405607 7.9164796894847491 -1.9052359967497658
1032 344 2 0.417 -6.1773795611575864 7.7577209407654033 -1.6283107830930117
1033 345 1 -0.834 -7.4674634804157360 10.431580082211289 1.7337426513989793
1034 345 2 0.417 -8.3772440432098545 10.213862089357411 1.5371232140339866
1035 345 2 0.417 -7.4532403912852212 11.387052737107306 1.7800428617822837
1036 346 1 -0.834 -7.6030490309734740 11.523673548983730 4.2603627318747375
1037 346 2 0.417 -6.8461198916734487 11.026190668863084 3.9548630394601716
1038 346 2 0.417 -7.7061683197638580 11.266855088658124 5.1761600297061623
1039 347 1 -0.834 -8.3672871499073000 11.021868865885191 7.2988445166270290
1040 347 2 0.417 -8.0739577970392382 11.925904821564149 7.4010104678319912
1041 347 2 0.417 -9.1610296371622937 10.964909689206248 7.8298836075782354
1042 348 1 -0.834 -8.0970741209758508 10.746661913929819 11.455994537941448
1043 348 2 0.417 -9.0271435392333750 10.857434261169921 11.646943128690435
1044 348 2 0.417 -7.8688551665067985 11.506791671271769 10.921772804178872
1045 349 1 -0.834 -6.9970211683828767 10.217537350942147 -10.718085200009300
1046 349 2 0.417 -7.4482316393865071 10.452724450158376 -11.527317638322872
1047 349 2 0.417 -6.0838482014832342 10.456842230914411 -10.873398776187154
1048 350 1 -0.834 -8.4299133165537530 10.604683190418257 -7.5464048142025266
1049 350 2 0.417 -8.1466890957761890 11.033844366972389 -8.3522371325564269
1050 350 2 0.417 -9.3128821578897885 10.939477904137267 -7.3929364953367571
1051 351 1 -0.834 -6.6895609230806752 10.733622609849164 -3.5206986459708816
1052 351 2 0.417 -7.1162526626544089 11.583255090284872 -3.6197935881637311
1053 351 2 0.417 -6.9956629404778745 10.407760529273391 -2.6748916588939422
1054 352 1 -0.834 -7.0802582615040164 10.495198420484975 -0.87023284090942410
1055 352 2 0.417 -6.3416933077528439 11.099650133695015 -0.81618716126732982
1056 352 2 0.417 -7.4335634787855467 10.466818692709975 1.8386320763931083E-002
1057 353 1 -0.834 -7.5844600134294540 -11.395839666420041 0.86628985343681841
1058 353 2 0.417 -7.0691740946708173 -10.628439098261758 1.1122751983649541
1059 353 2 0.417 -7.6378321172936818 -11.352212968022567 -8.8536376678396908E-002
1060 354 1 -0.834 -7.8872864872245909 -9.3343847042355499 3.7176233202205684
1061 354 2 0.417 -7.4760825335401089 -9.0510812619134100 2.9017909428030717
1062 354 2 0.417 -7.6091414053705151 -8.6851588787937786 4.3638323738710438
1063 355 1 -0.834 -7.8501024565704354 -10.830520748732127 7.7214244949594839
1064 355 2 0.417 -8.2317471827850675 -10.086121185138838 7.2575833662584168
1065 355 2 0.417 -6.9075981308245575 -10.663362767882751 7.7076838476438017
1066 356 1 -0.834 -7.9720904137759137 -10.761538412108605 10.528383757133030
1067 356 2 0.417 -7.9810540461122139 -10.767986759721222 9.5719267156991759
1068 356 2 0.417 -7.0474087569197099 -10.669368174943763 10.758413061471900
1069 357 1 -0.834 -7.8774042541891438 -11.016319096429857 -9.7463765987949458
1070 357 2 0.417 -7.6265438852636285 -11.094224655752029 -8.8266310909889807
1071 357 2 0.417 -7.2432231576639028 -10.401901889730228 -10.116174966721916
1072 358 1 -0.834 -6.9799056000589754 -10.914094828840831 -7.0778200089561132
1073 358 2 0.417 -7.5062122505978408 -11.301267669218644 -6.3792282102121378
1074 358 2 0.417 -6.3201213622186474 -10.393240567332747 -6.6197363945729668
1075 359 1 -0.834 -8.4382323136894062 -11.730138738787181 -4.5914119002907379
1076 359 2 0.417 -9.2054232353536811 -11.733251291023871 -5.1626740132778695
1077 359 2 0.417 -8.4712122993564059 -10.880756108121615 -4.1510637797439811
1078 360 1 -0.834 -7.5843575779361005 -10.105491997910182 -1.6171473426559910
1079 360 2 0.417 -8.5054159450060869 -10.232374832170498 -1.8418343044949961
1080 360 2 0.417 -7.4359288128678847 -9.1673382210549210 -1.7366521236169663
1081 361 1 -0.834 -7.0393425439180275 -7.2431582576635725 1.8097292358058217
1082 361 2 0.417 -7.4043423197467453 -6.3693023476718178 1.9397754284354805
1083 361 2 0.417 -6.1532827552504497 -7.0878736981630759 1.4840626018270022
1084 362 1 -0.834 -7.1658071558172391 -7.2979989178087763 5.6441497274796726
1085 362 2 0.417 -7.1636204346825192 -6.3473882299859206 5.7446262841863955
1086 362 2 0.417 -7.1204656616251283 -7.6346545447290062 6.5385104700032768
1087 363 1 -0.834 -7.1009240079344682 -7.4054597898869483 8.4063901563728258
1088 363 2 0.417 -6.1930832233587436 -7.5444175976847641 8.6714879449583631
1089 363 2 0.417 -7.1606497925973365 -6.4660460341626056 8.2354848428149960
1090 364 1 -0.834 -7.9606145385166629 -6.4903730628919218 11.959046933285626
1091 364 2 0.417 -7.4948417366906677 -5.9925851709210320 11.288954468258337
1092 364 2 0.417 -8.5763354098837148 -7.0351099280558484 11.469737668817466
1093 365 1 -0.834 -8.6498022412257978 -7.6179680985581486 -10.208579860676867
1094 365 2 0.417 -9.4447796800313739 -7.0871996405938518 -10.201048870016498
1095 365 2 0.417 -8.0974614385250696 -7.2146481332580636 -10.877554182502641
1096 366 1 -0.834 -8.7890713815527679 -7.6673357801784956 -7.4035957762675926
1097 366 2 0.417 -8.6142851244300100 -7.7642653611956858 -8.3383767242146796
1098 366 2 0.417 -8.7329286875559635 -6.7256077333698938 -7.2446294786921603
1099 367 1 -0.834 -8.2038887646857734 -8.7585103113281519 -4.6308161242128172
1100 367 2 0.417 -8.4965422614371491 -8.5595230937277798 -5.5188020576998502
1101 367 2 0.417 -7.6015780583374442 -8.0484226447889906 -4.4111087760263192
1102 368 1 -0.834 -7.2803208736414264 -7.3699069613680557 -1.7289643220407380
1103 368 2 0.417 -6.5397341375110463 -7.0148237924444130 -1.2398751385425810
1104 368 2 0.417 -7.7137665741526682 -6.6021690748946558 -2.1004173640011952
1105 369 1 -0.834 -7.6183414616579226 -4.6307645998074252 1.7961692869691994
1106 369 2 0.417 -7.7150292703157231 -4.5592099259221319 2.7450967848857277
1107 369 2 0.417 -7.8635177788131481 -3.7667385163312490 1.4648197727413801
1108 370 1 -0.834 -7.3515359211676419 -4.4706409930823394 4.6545326856691407
1109 370 2 0.417 -7.6529983209005250 -3.5695343883996169 4.7643475687427115
1110 370 2 0.417 -6.4777986737780076 -4.4800106249298928 5.0456086789530712
1111 371 1 -0.834 -6.3692382151424169 -4.5247355164235916 7.7125479312011214
1112 371 2 0.417 -5.4740293888331886 -4.4283069814553055 7.3896939472673147
1113 371 2 0.417 -6.7413388759376875 -3.6447400121851001 7.6525978623458597
1114 372 1 -0.834 -7.1001606913246187 -3.5198697117899052 11.063257681861943
1115 372 2 0.417 -7.3149384925187757 -2.7477824600271727 10.541066364642203
1116 372 2 0.417 -7.9493672877834429 -3.8717397946999461 11.330616245000815
1117 373 1 -0.834 -6.7740739958627021 -4.5543288157522914 -9.7060410444674066
1118 373 2 0.417 -7.7124909903185941 -4.7394811631715736 -9.7109555903773721
1119 373 2 0.417 -6.6969094363973589 -3.6979953315805334 -10.126972861569364
1120 374 1 -0.834 -7.9002562024766352 -5.1819409082964514 -7.2633213007734794
1121 374 2 0.417 -8.7339751815162749 -4.9315014560143178 -7.6597109382890487
1122 374 2 0.417 -7.2500530437852415 -5.0094345427677256 -7.9444397972774139
1123 375 1 -0.834 -7.4304984904573770 -5.2982775287004156 -4.5311249800567222
1124 375 2 0.417 -6.5174338490357542 -5.1238582880882202 -4.3056856554262053
1125 375 2 0.417 -7.4532626437525371 -5.2556795191763896 -5.4872171319486576
1126 376 1 -0.834 -8.0599749441191566 -4.2632929278217393 -1.6841477551596260
1127 376 2 0.417 -7.8120834463615658 -3.3728610331184816 -1.4379509919098776
1128 376 2 0.417 -7.8135509683642219 -4.3339359366731829 -2.6064978998842561
1129 377 1 -0.834 -7.6344701970788158 -1.9472379750881359 0.49644760189426412
1130 377 2 0.417 -7.4574155861985094 -1.0896487910752597 0.87979268955049006
1131 377 2 0.417 -7.6415326084435575 -1.7920775429112445 -0.44755947574466798
1132 378 1 -0.834 -8.0523000778568274 -2.0723966582464883 3.9320829070647050
1133 378 2 0.417 -7.6492794647608271 -1.2265139010830031 3.7428271368667541
1134 378 2 0.417 -8.9527831767304953 -1.8607252037821012 4.1762127577749055
1135 379 1 -0.834 -6.0131076863104935 -1.6593508958508467 6.7818807427218601
1136 379 2 0.417 -5.5057771462426928 -1.7150541228126328 5.9736271478516798
1137 379 2 0.417 -6.5221785455003465 -0.85439450103919279 6.6915144726011233
1138 380 1 -0.834 -7.6364229257826395 -1.6579758756685736 9.1663763529450240
1139 380 2 0.417 -8.0022228980715457 -1.1888826655674603 8.4181097289997560
1140 380 2 0.417 -6.6920838664426423 -1.6565354846501512 9.0130933914699671
1141 381 1 -0.834 -6.5838022429096430 -1.6008300106159337 -10.252469306247649
1142 381 2 0.417 -7.0429637459931671 -0.97724178790924510 -9.6920503178223907
1143 381 2 0.417 -5.8358015539620345 -1.1119312460928952 -10.594151859770294
1144 382 1 -0.834 -7.0701155735770396 -0.82414991718112418 -7.4012477326712167
1145 382 2 0.417 -7.6488687592598774 -0.15470768161331822 -7.0397884081270332
1146 382 2 0.417 -6.8608119074818674 -1.3884167901316256 -6.6575617294078890
1147 383 1 -0.834 -7.1466199849902976 -1.7575780286551905 -4.6453723942650234
1148 383 2 0.417 -7.9815634334717442 -2.2134657075909043 -4.7391639825472698
1149 383 2 0.417 -7.2331967948201621 -1.2617407131955982 -3.8317853905601287
1150 384 1 -0.834 -8.0890648056284356 -0.83081513547214203 -2.2180141851113850
1151 384 2 0.417 -9.0225983219659138 -0.89559262875600565 -2.0228730817055962
1152 384 2 0.417 -7.9129514998137891 0.10921758333816134 -2.2424393991564751
1153 385 1 -0.834 -4.6466031976788758 1.7375312651576498 2.0619325563390825
1154 385 2 0.417 -3.8208439899118263 1.5655412066563228 1.6091785938333580
1155 385 2 0.417 -4.8698436214953889 2.6354187268710003 1.8192520683055771
1156 386 1 -0.834 -4.5383312775307827 0.57546195802009759 4.6513166801426902
1157 386 2 0.417 -4.5558344802844291 1.2520521514987781 5.3283427859774957
1158 386 2 0.417 -4.3226288935279156 1.0470177062561663 3.8475507578487664
1159 387 1 -0.834 -5.4096472350887446 2.0740383022873679 6.7770878592988115
1160 387 2 0.417 -5.4453775218871909 2.9189961561211106 6.3285183865858619
1161 387 2 0.417 -5.4044437741938660 2.2971437770602128 7.7072109001493780
1162 388 1 -0.834 -4.9887988028297565 2.8665095345025069 9.6915593536064701
1163 388 2 0.417 -4.3803565975053500 2.3279670883101704 10.197736315181304
1164 388 2 0.417 -4.6628548843785538 3.7595029603663601 9.7976503682524125
1165 389 1 -0.834 -5.1769292855986686 1.3604987672387800 -10.526758833682059
1166 389 2 0.417 -5.5986909395814513 1.4583061153973109 -9.6729463074938486
1167 389 2 0.417 -4.8941366740689851 2.2449164441559333 -10.756466716917883
1168 390 1 -0.834 -5.1552003347082733 0.88168646240690662 -7.7686554703570652
1169 390 2 0.417 -5.8663412720248962 0.24103436670958067 -7.7516713733526146
1170 390 2 0.417 -5.5254806275490331 1.6609428157244308 -7.3556372618624941
1171 391 1 -0.834 -3.9464427853564445 1.8160287783226134 -4.4728142058073210
1172 391 2 0.417 -3.9409401308848677 2.7254004112739105 -4.1737189802064183
1173 391 2 0.417 -3.0291321067919399 1.5472443292830058 -4.4377708191842817
1174 392 1 -0.834 -4.2149929239726767 0.72038291138023869 -1.4483725639648062
1175 392 2 0.417 -5.1599938623677275 0.87213619048555757 -1.4680999234753478
1176 392 2 0.417 -3.9403036588115690 0.80398046574199600 -2.3607810560942784
1177 393 1 -0.834 -4.1475815960491618 5.1313139705268238 2.0097903181978776
1178 393 2 0.417 -4.0875202803072961 4.9262988554101721 1.0772478575425708
1179 393 2 0.417 -3.9915830605536406 6.0730965135910324 2.0595004630656293
1180 394 1 -0.834 -5.7606879141820651 4.4868127859524298 4.4167299776438425
1181 394 2 0.417 -5.3183251209005746 4.9515322211709227 3.7070645595414713
1182 394 2 0.417 -6.2680601996397503 5.1609146343365842 4.8660862527246591
1183 395 1 -0.834 -3.8912195665563218 5.0443371037003164 6.6091651885700724
1184 395 2 0.417 -4.4463183742185270 5.0575514356981088 5.8300857990584092
1185 395 2 0.417 -4.2162678569598135 5.7636902106949073 7.1482715939883290
1186 396 1 -0.834 -4.4810436906546913 5.5776845820424237 11.243553797018150
1187 396 2 0.417 -3.5390484372433204 5.7300477588031598 11.174965132372854
1188 396 2 0.417 -4.8791305827689717 6.3463061743418825 10.837957107956415
1189 397 1 -0.834 -4.7537626258904915 4.0285305011041546 -10.829830778371184
1190 397 2 0.417 -5.6391791674885141 4.3275052432512862 -10.625073235353460
1191 397 2 0.417 -4.5175274649880208 4.5033118658644566 -11.625152477075376
1192 398 1 -0.834 -4.4706053971367368 4.9588434753036941 -7.0769376113571729
1193 398 2 0.417 -4.2601743513564108 5.8824047145174303 -6.9426714116128307
1194 398 2 0.417 -4.7464362399108522 4.6474619095283787 -6.2162867723580826
1195 399 1 -0.834 -4.9222418884502979 4.6458256899034431 -4.0880480599273925
1196 399 2 0.417 -5.8551803535398204 4.6835365788284982 -4.2965611511540223
1197 399 2 0.417 -4.6849708583301393 5.5488251674146110 -3.8829739224056503
1198 400 1 -0.834 -3.9961777830646468 3.2430005157217714 -0.23062174107205768
1199 400 2 0.417 -3.9347091803217222 2.4330210843389226 -0.73602151512578307
1200 400 2 0.417 -3.3788781525946141 3.8378081412577960 -0.65359461824713294
1201 401 1 -0.834 -4.3539731738810428 7.9331353901713877 1.6702782072739017
1202 401 2 0.417 -5.3044790428524955 7.8211404516889935 1.6912717016270393
1203 401 2 0.417 -4.1830576171030209 8.6423430349627939 2.2889415963803739
1204 402 1 -0.834 -4.4128679549475907 8.4777463883609609 4.5329103668610955
1205 402 2 0.417 -3.6273169910266239 8.5047597008180329 5.0793762523772408
1206 402 2 0.417 -4.7020981059849793 9.3882210725622297 4.4848087124250924
1207 403 1 -0.834 -4.1794910621104107 7.1356776271218525 8.1676452022253656
1208 403 2 0.417 -3.2970096987905397 7.5063133778385120 8.1849883185486583
1209 403 2 0.417 -4.6738679473699536 7.6660145076592565 8.7915572861465776
1210 404 1 -0.834 -5.1995420275103754 8.4376455906127408 10.671326246087933
1211 404 2 0.417 -4.8761152331038300 8.2835634234736979 11.559075531882995
1212 404 2 0.417 -5.2871516448699296 9.3881944101018053 10.610387779467331
1213 405 1 -0.834 -4.5498626404140943 8.0934720205575523 -10.892007565155660
1214 405 2 0.417 -5.1897613628681158 7.3860627482553509 -10.811095597792518
1215 405 2 0.417 -4.7576831329512261 8.6874255644293541 -10.171617510668673
1216 406 1 -0.834 -4.2025431677164917 7.5942073226107389 -6.6947916162276719
1217 406 2 0.417 -4.7340613759489747 8.3056745875122413 -7.0522097541150703
1218 406 2 0.417 -3.3002574004087180 7.8571515175118316 -6.8727599967946773
1219 407 1 -0.834 -4.5717494936297376 7.1825178452483831 -3.6159023701800703
1220 407 2 0.417 -3.7288363813029197 7.3595990306247661 -4.0337357566551333
1221 407 2 0.417 -4.5439497905428849 7.6817052096284320 -2.8004447368528798
1222 408 1 -0.834 -4.4974073487764255 8.3242667862959614 -1.1341400949035316
1223 408 2 0.417 -4.6263125910397322 8.0774896767548459 -0.21820914951323483
1224 408 2 0.417 -4.1222348274099447 9.2032435909905654 -1.0944241532634220
1225 409 1 -0.834 -3.8195226305817540 11.961164526472601 1.5745903684706095
1226 409 2 0.417 -3.0187496103768776 11.484378699571907 1.7907196015201650
1227 409 2 0.417 -3.6775119510812604 -11.573202462263437 1.9227273832466081
1228 410 1 -0.834 -4.5515423036566798 11.133599358672413 4.0165013539439451
1229 410 2 0.417 -4.5390962600006342 12.048934114729903 4.2944966423041979
1230 410 2 0.417 -4.1754831395975849 11.144027986598774 3.1377341783810730
1231 411 1 -0.834 -4.4638437301189553 10.494061518829074 8.4363392036706522
1232 411 2 0.417 -4.8581153361382494 10.612201298132689 9.2999750605183422
1233 411 2 0.417 -4.6610324803347192 11.304338969974895 7.9690833327037973
1234 412 1 -0.834 -4.7521268753488881 11.389499522919243 11.072553257243619
1235 412 2 0.417 -4.8208397246058068 -12.078160766188592 10.944270372708941
1236 412 2 0.417 -4.5565840682782301 11.286571216679301 12.002569264835696
1237 413 1 -0.834 -4.0280644091241831 11.145913882855329 -10.689079628696376
1238 413 2 0.417 -3.2370008114697630 10.806476411174373 -11.106541707554909
1239 413 2 0.417 -3.7577697000529855 11.976812094716074 -10.301381380344997
1240 414 1 -0.834 -5.4618222698975485 9.9519087093027139 -8.2405298193010772
1241 414 2 0.417 -4.8282215216066851 10.665429705886808 -8.1718866900099876
1242 414 2 0.417 -6.2827434146391390 10.328296578246498 -7.9271903129695058
1243 415 1 -0.834 -4.6855323803974231 11.895008072689015 -5.0731966773385153
1244 415 2 0.417 -5.5437725137208078 11.513363142477258 -4.8914137826627195
1245 415 2 0.417 -4.8136349159879908 -11.576870865088887 -4.9672961419768580
1246 416 1 -0.834 -4.6148707114605791 11.540940448367616 -0.83617311024810892
1247 416 2 0.417 -4.5819872174721130 -12.000227054843998 -1.2282257098461209
1248 416 2 0.417 -4.4577705137684163 11.689786491083918 9.4915168838667005E-002
1249 417 1 -0.834 -3.4425555431121664 -9.9132153178187359 2.3664656454502397
1250 417 2 0.417 -3.6540372541330091 -8.9835340842613984 2.4525661092991324
1251 417 2 0.417 -3.4917441240469911 -10.253286707536446 3.2591380004613488
1252 418 1 -0.834 -5.2735035486440562 -10.589123923837450 4.7337955040704234
1253 418 2 0.417 -5.0374758692573405 -9.6616660788139654 4.7101760149200835
1254 418 2 0.417 -6.2151339091341686 -10.600560428935221 4.5660651533451775
1255 419 1 -0.834 -4.8366310330950162 -11.357092834232398 7.2925962867971617
1256 419 2 0.417 -4.7808081940050080 -11.267806690673542 6.3410938983585865
1257 419 2 0.417 -4.3711947755786067 -10.593530351360318 7.6321156896879900
1258 420 1 -0.834 -5.2037164169622239 -10.299736407465318 11.424424935811903
1259 420 2 0.417 -5.3011504938257854 -10.403054668301721 -12.042082836039702
1260 420 2 0.417 -5.0953115380864853 -9.3580171976403150 11.296576149808644
1261 421 1 -0.834 -5.0949385244310825 -10.329644353392629 -9.6947063749953468
1262 421 2 0.417 -4.7530376082299099 -10.939198877289268 -9.0404953647716297
1263 421 2 0.417 -5.0632613345294031 -9.4755088381637975 -9.2653101974800922
1264 422 1 -0.834 -3.9368897901789359 -11.826887470070227 -7.6414766079722085
1265 422 2 0.417 -3.0948223889611981 -11.434414389501942 -7.4105385798442391
1266 422 2 0.417 -4.3002946003065086 -12.121354362206173 -6.8071156588549027
1267 423 1 -0.834 -5.3210596756280024 -9.9984379692627421 -4.5674176986319441
1268 423 2 0.417 -4.9076588742156746 -9.1736677451862239 -4.3118812924812557
1269 423 2 0.417 -6.1141973920751402 -10.043483658472910 -4.0346556047921238
1270 424 1 -0.834 -4.8124216009114482 -10.339226179891174 -1.3129293839087717
1271 424 2 0.417 -4.5332812721955458 -9.4236381007088532 -1.2979578728426440
1272 424 2 0.417 -5.7631473556243886 -10.300973368810652 -1.2150046078306498
1273 425 1 -0.834 -4.2252015978478026 -6.5429390200251945 1.1740676382122255
1274 425 2 0.417 -3.2810196833336085 -6.5667865726559409 1.0216674855291354
1275 425 2 0.417 -4.4020120081563148 -5.6442448550282149 1.4476510379405627
1276 426 1 -0.834 -3.9607946003505301 -7.8604276938546134 4.7330953125426243
1277 426 2 0.417 -3.0461035907110880 -7.6828938617014932 4.5160789644814816
1278 426 2 0.417 -4.3955896690915957 -7.0128039593418290 4.6540494215104955
1279 427 1 -0.834 -4.4957122867848751 -8.0325775856803947 8.0856744505860032
1280 427 2 0.417 -3.7043778735310746 -7.6479244753435260 8.4613150116393179
1281 427 2 0.417 -4.3812083385514136 -7.9435551529205330 7.1408332722367103
1282 428 1 -0.834 -4.3028054608845920 -7.4813140599720915 11.541837266165116
1283 428 2 0.417 -4.4860125736752439 -7.3721173701550979 -11.938766771052791
1284 428 2 0.417 -4.6340796469775576 -6.6815250570222107 11.136428874060448
1285 429 1 -0.834 -4.4541433158158714 -5.8700727968716633 -10.745141058192162
1286 429 2 0.417 -4.1673058576154762 -5.0320380845508668 -11.106660205013664
1287 429 2 0.417 -5.2358739920141240 -5.6580460230835588 -10.237496697357106
1288 430 1 -0.834 -4.8628996329864043 -7.8189288705401081 -8.2241892919174440
1289 430 2 0.417 -4.1657519873560558 -7.1643351533356174 -8.2518700720449747
1290 430 2 0.417 -5.2039151151381375 -7.7695050744174550 -7.3325465779845223
1291 431 1 -0.834 -4.7454493803264972 -7.2972443897784194 -5.2904402393512164
1292 431 2 0.417 -4.8777079875354001 -6.5074386701933964 -4.7670010488716175
1293 431 2 0.417 -3.8004576159930878 -7.3389026395616099 -5.4283393168210807
1294 432 1 -0.834 -4.5620393629396352 -7.7504504321738414 -1.3199539529398527
1295 432 2 0.417 -3.8252880992080214 -7.4793985440180712 -1.8667651171611688
1296 432 2 0.417 -4.3396832432565722 -7.4375387827184483 -0.44450832031918652
1297 433 1 -0.834 -5.0821078203177814 -4.1048115073762661 1.2909485763812805
1298 433 2 0.417 -6.0342443434301716 -4.2035054843387298 1.2790936083603961
1299 433 2 0.417 -4.9396919759479685 -3.1589627795729749 1.2864863588460218
1300 434 1 -0.834 -4.6542781868928857 -5.0799747195025091 4.9069770169378284
1301 434 2 0.417 -4.9702493747414493 -4.7252802474373352 4.0758338042867424
1302 434 2 0.417 -4.2035732691660330 -4.3465747380432074 5.3240160370934095
1303 435 1 -0.834 -3.1591627444440675 -3.7581435591195178 7.0577604817676773
1304 435 2 0.417 -2.4417584285675549 -3.8897236040675329 7.6778110759398199
1305 435 2 0.417 -3.2782762580481934 -2.8095437819256412 7.0277199494056264
1306 436 1 -0.834 -5.0833921308366259 -5.1832037254348906 10.330771061464327
1307 436 2 0.417 -5.8328110987620141 -4.7148071432686525 10.698766784712065
1308 436 2 0.417 -5.4266431431769826 -5.6013051695082172 9.5419099044847755
1309 437 1 -0.834 -3.8142814274249255 -3.2866538625964457 -10.778640731826744
1310 437 2 0.417 -4.3441960637821380 -2.5290805195713810 -11.027072026377605
1311 437 2 0.417 -2.9986410435766344 -2.9104355757410749 -10.449820773686383
1312 438 1 -0.834 -4.0462877879491987 -5.1391479826364304 -7.5659371718462420
1313 438 2 0.417 -4.2671922158987492 -4.2691205428113861 -7.8986509943179986
1314 438 2 0.417 -3.6234103470630417 -4.9729787918538326 -6.7242160363006027
1315 439 1 -0.834 -4.6029103543035443 -4.8109644455353067 -4.0993035629935353
1316 439 2 0.417 -4.5368949232762210 -3.8671288183842112 -4.2451160171481082
1317 439 2 0.417 -4.5034319883400515 -4.9143385519485943 -3.1536028445691140
1318 440 1 -0.834 -4.1783611412470396 -4.4894804255858709 -1.5435453550603702
1319 440 2 0.417 -4.2611361426344301 -4.5637576104663911 -0.59271613855956673
1320 440 2 0.417 -3.6215633146729198 -3.7230725552954889 -1.6759355234237772
1321 441 1 -0.834 -4.4382116538065146 -1.4616484279659852 1.7886069212422551
1322 441 2 0.417 -3.9501962622817040 -0.73617712716091532 1.4002689636034455
1323 441 2 0.417 -5.3489860932630986 -1.1715674742564750 1.7784108078881684
1324 442 1 -0.834 -4.0964871815077073 -2.1290435542673034 4.4753033917115967
1325 442 2 0.417 -4.0362686587512169 -2.1311305352527503 3.5205032167915329
1326 442 2 0.417 -3.9952057435183801 -1.2107233717702726 4.7206421630818003
1327 443 1 -0.834 -3.2704662048555320 0.14329204096561798 7.3218320308113958
1328 443 2 0.417 -3.9208852529527287 0.78862984733585029 7.0465718311065002
1329 443 2 0.417 -2.5671417764840947 0.22154301322379677 6.6792026401073548
1330 444 1 -0.834 -3.5087314472336675 -8.9596344922813931E-002 9.9866961394722775
1331 444 2 0.417 -3.4989175337094993 -0.15198062622829656 9.0320831872516774
1332 444 2 0.417 -2.6458504330016313 0.25311362548559213 10.214176317642943
1333 445 1 -0.834 -4.3541412076996142 -0.86395066777583518 -11.999757497047106
1334 445 2 0.417 -4.3319743015638927 -0.78671374731949462 11.460150328595212
1335 445 2 0.417 -4.5498674418131060 1.9435388503045693E-002 -11.691404911762346
1336 446 1 -0.834 -4.0387064149185212 -1.5963380320655014 -8.6003152550156106
1337 446 2 0.417 -4.9337992330726008 -1.9031406620185898 -8.7415773983621481
1338 446 2 0.417 -4.1366687135444646 -0.79966273730139259 -8.0812074986100164
1339 447 1 -0.834 -4.2543711778617030 -2.0776532053852415 -4.0315887370636547
1340 447 2 0.417 -3.8390063395026037 -1.5037467347036979 -4.6745330689966531
1341 447 2 0.417 -5.1907089597766847 -1.9961601189447218 -4.2059201313130341
1342 448 1 -0.834 -2.5296994288570724 -1.8130839089155095 -1.8239199496162586
1343 448 2 0.417 -2.6945234393238202 -0.91485451775666315 -1.5388041723746952
1344 448 2 0.417 -3.2144979946869707 -1.9908339100688708 -2.4667394120839869
1345 449 1 -0.834 -2.0809151266975379 1.2939503246749657 1.1802117458280637
1346 449 2 0.417 -1.7138100004503043 1.3452903596765760 0.29843511476493362
1347 449 2 0.417 -1.3168239209053043 1.2628392379951792 1.7560951797941475
1348 450 1 -0.834 -1.2539959290118619 0.54030094684407359 5.5761877961174529
1349 450 2 0.417 -0.93533131459077246 1.3056710142684911 5.0991201663136554
1350 450 2 0.417 -1.5385702071067933 -6.6407133968488713E-002 4.8925447716350261
1351 451 1 -0.834 -0.66630738878078333 1.8261327822361975 7.9985701016090678
1352 451 2 0.417 -0.83676457064924981 1.1862531012244886 7.3083307641486286
1353 451 2 0.417 -1.1338423761796825 2.6125027889289920 7.7166512336135282
1354 452 1 -0.834 -2.3482436980152910 2.5159858752933437 10.599154251475031
1355 452 2 0.417 -2.5234252369826558 2.6973503145611426 9.6764677561939401
1356 452 2 0.417 -1.7574426131151468 3.2177068487511229 10.872991344452370
1357 453 1 -0.834 -1.8897720281203378 0.69703479844981020 -11.116539717073513
1358 453 2 0.417 -2.6556285216269564 0.20133324023307353 -10.829005725108640
1359 453 2 0.417 -2.2405272446941207 1.3481062566448681 -11.724422711053480
1360 454 1 -0.834 -2.2316721742379584 1.4858100537280139 -7.1539970411284868
1361 454 2 0.417 -2.1333264246665933 2.2917996889369130 -7.6596063977241533
1362 454 2 0.417 -3.1757271423969042 1.3280223055807920 -7.1364401726994835
1363 455 1 -0.834 -1.1066190987383830 1.4190525033687289 -4.6976338931503099
1364 455 2 0.417 -1.3569005807256560 1.5096944906489711 -5.6163695514961391
1365 455 2 0.417 -0.18550675271528663 1.6787235635345357 -4.6738014254603284
1366 456 1 -0.834 -1.0922616743224467 1.5687473849222537 -1.2498651891802544
1367 456 2 0.417 -1.4747737331456250 2.4117421672261856 -1.4906479166820410
1368 456 2 0.417 -1.0856714090022277 1.0672970600967118 -2.0653093259151771
1369 457 1 -0.834 -1.5894941113118646 4.8686558604683627 2.5397254526403854
1370 457 2 0.417 -2.5193841725637727 4.9783029901332982 2.3472599208141292
1371 457 2 0.417 -1.1752110560613398 5.6523860432171746 2.1799886727848850
1372 458 1 -0.834 -0.55127244059963643 3.0566023197006307 4.5496098842891826
1373 458 2 0.417 -0.96280533587825667 3.4074371612158951 3.7613735047160528
1374 458 2 0.417 0.20025672967803301 3.6282492066419212 4.7035505964873963
1375 459 1 -0.834 -1.6483368187946268 4.4589088331692119 8.0520077251234241
1376 459 2 0.417 -2.4325758253790668 4.5927155014884011 7.5220775824963324
1377 459 2 0.417 -1.1372888170664486 5.2586929693211122 7.9318025859263015
1378 460 1 -0.834 -1.8496544067028884 5.8116734156702838 10.767270714674982
1379 460 2 0.417 -1.1456505632890668 6.3094292791954141 11.180040249385236
1380 460 2 0.417 -1.6317675008912036 5.8137975884163184 9.8357156791746867
1381 461 1 -0.834 -1.6077686063476273 4.9999117954292736 -10.894727818396934
1382 461 2 0.417 -1.8649904302392157 4.8398298722042323 -11.801354373914949
1383 461 2 0.417 -1.3474388990420794 5.9203466319280738 -10.877345204852546
1384 462 1 -0.834 -1.9807023387146299 3.9652942805961491 -8.4267515690119374
1385 462 2 0.417 -2.8173564273997020 4.3846717138606319 -8.2320890293309716
1386 462 2 0.417 -1.7821371673977795 4.2295610078958932 -9.3245315919475100
1387 463 1 -0.834 -1.1205265020378561 5.2443638231079337 -4.2320442408719670
1388 463 2 0.417 -0.91290030409252676 6.1529600156277002 -4.4444243738066351
1389 463 2 0.417 -1.2463232839968401 4.8214745203425400 -5.0809339906365398
1390 464 1 -0.834 -1.9735985003252963 4.3963116920920893 -1.7686539864405171
1391 464 2 0.417 -1.7295834589135426 4.2796816677105927 -2.6855046269363361
1392 464 2 0.417 -2.1664416955212897 5.3298793701310094 -1.6878029345759193
1393 465 1 -0.834 -1.8139296031252212 7.2044969773636769 1.0252773631157772
1394 465 2 0.417 -2.6804751260093531 7.6085667601424953 1.0528176502337678
1395 465 2 0.417 -1.5602791220873291 7.2448408237382846 0.10306328410323960
1396 466 1 -0.834 -1.4445897608034732 8.3796206173232850 4.8775005289594100
1397 466 2 0.417 -1.4129092014350872 9.3317147587615921 4.9637854523061273
1398 466 2 0.417 -1.0406401992873280 8.2027716772028416 4.0277981080324219
1399 467 1 -0.834 -1.2873333457613836 7.1789493873651731 7.7185846982731885
1400 467 2 0.417 -1.3428393009335109 7.4474967131264505 6.8022150006255107
1401 467 2 0.417 -0.57951760066630287 7.7115609465400157 8.0815816652423766
1402 468 1 -0.834 0.34467924981731224 7.9538467166290756 10.717262618735566
1403 468 2 0.417 0.43471171479048115 8.0616595860791254 9.7711111824253987
1404 468 2 0.417 0.41477617800936012 8.8421922804426032 11.067081971989312
1405 469 1 -0.834 -1.6119349455910155 7.7494572380082012 -10.613741241923362
1406 469 2 0.417 -2.5039881888563014 7.6183387238410205 -10.933085799450934
1407 469 2 0.417 -1.3392687299856141 8.5817045823751030 -11.000345034793627
1408 470 1 -0.834 -1.7350253735203152 8.0823777287457528 -7.5847496789835711
1409 470 2 0.417 -1.5824204591941122 9.0092740797903126 -7.7650463637666780
1410 470 2 0.417 -1.2767964182987803 7.6230620331737695 -8.2886675125393197
1411 471 1 -0.834 -0.36721355606949374 7.9622027467279484 -5.1496991273823287
1412 471 2 0.417 -0.54885668578289737 8.0835210703641813 -6.0809454094033670
1413 471 2 0.417 -2.4164750959583162E-002 8.8079030751298610 -4.8606429531643363
1414 472 1 -0.834 -1.7086567358371918 7.2534342297573922 -1.8137163825830789
1415 472 2 0.417 -2.2222611556202407 8.0603672958796615 -1.8124807540644383
1416 472 2 0.417 -0.80670730766464172 7.5440619653962360 -1.9496124763335749
1417 473 1 -0.834 -1.4151016190668269 10.803073649473713 1.7359335546857442
1418 473 2 0.417 -1.3908501312956161 10.923690351946904 2.6838916109442308
1419 473 2 0.417 -0.54156426705139804 10.483961757404510 1.5114918139736271
1420 474 1 -0.834 -1.1433282918227556 11.084896701786972 4.5781104608661787
1421 474 2 0.417 -0.19082027168564347 11.134495507658434 4.6415882524992318
1422 474 2 0.417 -1.4393682816843385 11.987666047241564 4.6905463684324040
1423 475 1 -0.834 -1.6653484576833157 10.298958194929048 7.7879508723754158
1424 475 2 0.417 -1.4721583609512814 10.368875212304138 6.8543823439823264
1425 475 2 0.417 -2.6168046035714263 10.381996814957203 7.8437163638155720
1426 476 1 -0.834 -1.7306642211374459 11.424794160033318 10.356951177028655
1427 476 2 0.417 -1.9101650753396597 10.777656945344683 9.6766910292133357
1428 476 2 0.417 -1.9068246401145152 -12.145641379435762 9.9398847785963405
1429 477 1 -0.834 -1.5121805074536494 10.447497944008386 -11.501904932157215
1430 477 2 0.417 -1.5515218977159924 10.651818967826198 11.978334110616478
1431 477 2 0.417 -1.2305411178942545 11.263047628171806 -11.088586692891708
1432 478 1 -0.834 -1.5107478803044987 11.193666126415090 -7.6582422853015686
1433 478 2 0.417 -2.3574183809182041 11.478158488224501 -7.9987920752921795
1434 478 2 0.417 -1.6781736621576073 10.986679067414650 -6.7393304478670819
1435 479 1 -0.834 -2.1562489365122826 10.849908091209382 -5.0716027196742655
1436 479 2 0.417 -3.0844029431702760 11.025815658599070 -4.9254943090342298
1437 479 2 0.417 -1.7230166295485791 11.685476124744035 -4.9001097765601944
1438 480 1 -0.834 -2.1198461301827844 9.9254243511533424 -1.0093883090328859
1439 480 2 0.417 -1.7856147674831613 10.353334739689142 -0.22265894287760279
1440 480 2 0.417 -2.6012722996230773 10.611615531271728 -1.4705222458731257
1441 481 1 -0.834 -1.4310269168646366 -10.173708388377815 0.47258254725819487
1442 481 2 0.417 -2.2217801928398715 -10.048923457908694 0.99609947884900518
1443 481 2 0.417 -1.7361002930605673 -10.137438107145925 -0.43409253337200038
1444 482 1 -0.834 -2.0826223296394191 -10.711275803787643 4.5966035049169074
1445 482 2 0.417 -1.2569527174770887 -10.312899554333965 4.3236601858506045
1446 482 2 0.417 -2.2122170792462925 -10.402740066781488 5.4935181607590327
1447 483 1 -0.834 -2.1802002975664672 -9.7497556694007006 7.1850667615549053
1448 483 2 0.417 -2.1219281692406717 -9.7705492663196480 8.1395844331501230
1449 483 2 0.417 -2.3482434520869608 -8.8308950274726410 6.9755396298169066
1450 484 1 -0.834 -1.8612085050381364 -9.9139668592630823 10.067252968282492
1451 484 2 0.417 -1.2251670545050075 -9.2554625486695219 10.344300520398411
1452 484 2 0.417 -2.2073286597628519 -10.271352276580389 10.885129182621965
1453 485 1 -0.834 -1.0740555773653075 -11.389037300556641 -10.607299470849394
1454 485 2 0.417 -0.62111858170164480 -10.608631923138825 -10.924706976835832
1455 485 2 0.417 -1.4888041160241485 -11.109618113946418 -9.7909946455332388
1456 486 1 -0.834 -1.6549854725549178 -10.169672186840149 -8.1669241275414937
1457 486 2 0.417 -1.7733785463914538 -9.2750740837480592 -7.8497344145752939
1458 486 2 0.417 -0.70887010699171549 -10.311934878450884 -8.1341820808602900
1459 487 1 -0.834 -1.3058042317307552 -10.999227474984824 -4.7975260467700398
1460 487 2 0.417 -1.3557296326735262 -10.469451286586104 -5.5923698330239420
1461 487 2 0.417 -0.44388005904597261 -10.800647881666185 -4.4313322925100236
1462 488 1 -0.834 -2.2676183130680676 -10.849619911784279 -1.9502847818004643
1463 488 2 0.417 -2.4619713647680022 -11.224451460627234 -2.8085738946796353
1464 488 2 0.417 -3.1218914063032801 -10.767085270988105 -1.5261969191552562
1465 489 1 -0.834 -1.4361974505938260 -6.0447023911775704 1.0502940212258678
1466 489 2 0.417 -0.60833604690949539 -6.4785895284198523 0.84992324385175255
1467 489 2 0.417 -1.2290734428661521 -5.1108697257618143 1.0321226584446608
1468 490 1 -0.834 -1.5909316424737614 -6.5920899944712321 3.8870529773250579
1469 490 2 0.417 -1.4350808778360153 -5.9699588140729043 4.5958719482464216
1470 490 2 0.417 -1.5348379269014825 -6.0670206404609024 3.0892875553165147
1471 491 1 -0.834 -1.9549180525345284 -7.2711979694627917 8.7028484626894524
1472 491 2 0.417 -1.9848103852795156 -7.1861038721797188 9.6544925364116896
1473 491 2 0.417 -1.1959142551773014 -6.7522357333887930 8.4385277614071494
1474 492 1 -0.834 -1.7447494709853253 -6.9265543971585180 11.494143087734285
1475 492 2 0.417 -2.6850440622921368 -7.0820417392961357 11.567836832340751
1476 492 2 0.417 -1.6349830823536144 -6.0034883591313273 11.720360747008559
1477 493 1 -0.834 -0.12785983447536897 -8.7271429695571729 -11.006103938099447
1478 493 2 0.417 -0.68078535730613476 -8.0255312445663147 -11.346361713260677
1479 493 2 0.417 0.68065975917821164 -8.2895179505948722 -10.741426002758224
1480 494 1 -0.834 -1.5820312173985165 -7.0387269263149106 -7.8455630682677189
1481 494 2 0.417 -1.0303821524166386 -6.8281967929798935 -8.5973086183460357
1482 494 2 0.417 -2.2004276561666050 -6.3109116167629109 -7.7894852678413420
1483 495 1 -0.834 -1.8321794534934046 -7.6964405413634074 -5.1621704570742413
1484 495 2 0.417 -1.0676785773763977 -8.1555499958507394 -4.8179061411530641
1485 495 2 0.417 -1.7018314310878442 -7.6889429927077666 -6.1099189362706552
1486 496 1 -0.834 -2.1469037838156657 -6.8651495739577193 -2.5146679973541168
1487 496 2 0.417 -1.2015301924596933 -6.7237623985249355 -2.5083879185449129
1488 496 2 0.417 -2.3798519465082952 -6.8935777025750724 -3.4421382098145714
1489 497 1 -0.834 -0.71533417759287876 -3.5119936020871787 -0.40576160327468380
1490 497 2 0.417 -0.76987681184483603 -4.2367071717993250 -1.0276517406172325
1491 497 2 0.417 -1.1851686229068996 -2.7950350884864945 -0.83199051333589602
1492 498 1 -0.834 -1.1775948171507562 -4.2353154189771161 5.2397102281476995
1493 498 2 0.417 -0.58059650433622800 -3.6490157007774640 5.7031513300534558
1494 498 2 0.417 -2.0388148336181540 -4.0415928285283398 5.6101378745048640
1495 499 1 -0.834 -0.78435747151136148 -4.3801298825800483 8.4668736697832614
1496 499 2 0.417 -0.93558422099941907 -4.2243700906239940 9.3984322334007437
1497 499 2 0.417 0.16772660065171879 -4.3519891469829304 8.3710143012613756
1498 500 1 -0.834 -2.5916462981502373 -3.8917415653054084 10.583924620191672
1499 500 2 0.417 -3.3669870454564155 -4.4431549994458512 10.682524570577762
1500 500 2 0.417 -2.7912853516179204 -3.1051267138578447 11.091690633048636

Bonds

1 1 1 2
2 1 1 3
3 1 4 5
4 1 4 6
5 1 7 8
6 1 7 9
7 1 10 11
8 1 10 12
9 1 13 14
10 1 13 15
11 1 16 17
12 1 16 18
13 1 19 20
14 1 19 21
15 1 22 23
16 1 22 24
17 1 25 26
18 1 25 27
19 1 28 29
20 1 28 30
21 1 31 32
22 1 31 33
23 1 34 35
24 1 34 36
25 1 37 38
26 1 37 39
27 1 40 41
28 1 40 42
29 1 43 44
30 1 43 45
31 1 46 47
32 1 46 48
33 1 49 50
34 1 49 51
35 1 52 53
36 1 52 54
37 1 55 56
38 1 55 57
39 1 58 59
40 1 58 60
41 1 61 62
42 1 61 63
43 1 64 65
44 1 64 66
45 1 67 68
46 1 67 69
47 1 70 71
48 1 70 72
49 1 73 74
50 1 73 75
51 1 76 77
52 1 76 78
53 1 79 80
54 1 79 81
55 1 82 83
56 1 82 84
57 1 85 86
58 1 85 87
59 1 88 89
60 1 88 90
61 1 91 92
62 1 91 93
63 1 94 95
64 1 94 96
65 1 97 98
66 1 97 99
67 1 100 101
68 1 100 102
69 1 103 104
70 1 103 105
71 1 106 107
72 1 106 108
73 1 109 110
74 1 109 111
75 1 112 113
76 1 112 114
77 1 115 116
78 1 115 117
79 1 118 119
80 1 118 120
81 1 121 122
82 1 121 123
83 1 124 125
84 1 124 126
85 1 127 128
86 1 127 129
87 1 130 131
88 1 130 132
89 1 133 134
90 1 133 135
91 1 136 137
92 1 136 138
93 1 139 140
94 1 139 141
95 1 142 143
96 1 142 144
97 1 145 146
98 1 145 147
99 1 148 149
100 1 148 150
101 1 151 152
102 1 151 153
103 1 154 155
104 1 154 156
105 1 157 158
106 1 157 159
107 1 160 161
108 1 160 162
109 1 163 164
110 1 163 165
111 1 166 167
112 1 166 168
113 1 169 170
114 1 169 171
115 1 172 173
116 1 172 174
117 1 175 176
118 1 175 177
119 1 178 179
120 1 178 180
121 1 181 182
122 1 181 183
123 1 184 185
124 1 184 186
125 1 187 188
126 1 187 189
127 1 190 191
128 1 190 192
129 1 193 194
130 1 193 195
131 1 196 197
132 1 196 198
133 1 199 200
134 1 199 201
135 1 202 203
136 1 202 204
137 1 205 206
138 1 205 207
139 1 208 209
140 1 208 210
141 1 211 212
142 1 211 213
143 1 214 215
144 1 214 216
145 1 217 218
146 1 217 219
147 1 220 221
148 1 220 222
149 1 223 224
150 1 223 225
151 1 226 227
152 1 226 228
153 1 229 230
154 1 229 231
155 1 232 233
156 1 232 234
157 1 235 236
158 1 235 237
159 1 238 239
160 1 238 240
161 1 241 242
162 1 241 243
163 1 244 245
164 1 244 246
165 1 247 248
166 1 247 249
167 1 250 251
168 1 250 252
169 1 253 254
170 1 253 255
171 1 256 257
172 1 256 258
173 1 259 260
174 1 259 261
175 1 262 263
176 1 262 264
177 1 265 266
178 1 265 267
179 1 268 269
180 1 268 270
181 1 271 272
182 1 271 273
183 1 274 275
184 1 274 276
185 1 277 278
186 1 277 279
187 1 280 281
188 1 280 282
189 1 283 284
190 1 283 285
191 1 286 287
192 1 286 288
193 1 289 290
194 1 289 291
195 1 292 293
196 1 292 294
197 1 295 296
198 1 295 297
199 1 298 299
200 1 298 300
201 1 301 302
202 1 301 303
203 1 304 305
204 1 304 306
205 1 307 308
206 1 307 309
207 1 310 311
208 1 310 312
209 1 313 314
210 1 313 315
211 1 316 317
212 1 316 318
213 1 319 320
214 1 319 321
215 1 322 323
216 1 322 324
217 1 325 326
218 1 325 327
219 1 328 329
220 1 328 330
221 1 331 332
222 1 331 333
223 1 334 335
224 1 334 336
225 1 337 338
226 1 337 339
227 1 340 341
228 1 340 342
229 1 343 344
230 1 343 345
231 1 346 347
232 1 346 348
233 1 349 350
234 1 349 351
235 1 352 353
236 1 352 354
237 1 355 356
238 1 355 357
239 1 358 359
240 1 358 360
241 1 361 362
242 1 361 363
243 1 364 365
244 1 364 366
245 1 367 368
246 1 367 369
247 1 370 371
248 1 370 372
249 1 373 374
250 1 373 375
251 1 376 377
252 1 376 378
253 1 379 380
254 1 379 381
255 1 382 383
256 1 382 384
257 1 385 386
258 1 385 387
259 1 388 389
260 1 388 390
261 1 391 392
262 1 391 393
263 1 394 395
264 1 394 396
265 1 397 398
266 1 397 399
267 1 400 401
268 1 400 402
269 1 403 404
270 1 403 405
271 1 406 407
272 1 406 408
273 1 409 410
274 1 409 411
275 1 412 413
276 1 412 414
277 1 415 416
278 1 415 417
279 1 418 419
280 1 418 420
281 1 421 422
282 1 421 423
283 1 424 425
284 1 424 426
285 1 427 428
286 1 427 429
287 1 430 431
288 1 430 432
289 1 433 434
290 1 433 435
291 1 436 437
292 1 436 438
293 1 439 440
294 1 439 441
295 1 442 443
296 1 442 444
297 1 445 446
298 1 445 447
299 1 448 449
300 1 448 450
301 1 451 452
302 1 451 453
303 1 454 455
304 1 454 456
305 1 457 458
306 1 457 459
307 1 460 461
308 1 460 462
309 1 463 464
310 1 463 465
311 1 466 467
312 1 466 468
313 1 469 470
314 1 469 471
315 1 472 473
316 1 472 474
317 1 475 476
318 1 475 477
319 1 478 479
320 1 478 480
321 1 481 482
322 1 481 483
323 1 484 485
324 1 484 486
325 1 487 488
326 1 487 489
327 1 490 491
328 1 490 492
329 1 493 494
330 1 493 495
331 1 496 497
332 1 496 498
333 1 499 500
334 1 499 501
335 1 502 503
336 1 502 504
337 1 505 506
338 1 505 507
339 1 508 509
340 1 508 510
341 1 511 512
342 1 511 513
343 1 514 515
344 1 514 516
345 1 517 518
346 1 517 519
347 1 520 521
348 1 520 522
349 1 523 524
350 1 523 525
351 1 526 527
352 1 526 528
353 1 529 530
354 1 529 531
355 1 532 533
356 1 532 534
357 1 535 536
358 1 535 537
359 1 538 539
360 1 538 540
361 1 541 542
362 1 541 543
363 1 544 545
364 1 544 546
365 1 547 548
366 1 547 549
367 1 550 551
368 1 550 552
369 1 553 554
370 1 553 555
371 1 556 557
372 1 556 558
373 1 559 560
374 1 559 561
375 1 562 563
376 1 562 564
377 1 565 566
378 1 565 567
379 1 568 569
380 1 568 570
381 1 571 572
382 1 571 573
383 1 574 575
384 1 574 576
385 1 577 578
386 1 577 579
387 1 580 581
388 1 580 582
389 1 583 584
390 1 583 585
391 1 586 587
392 1 586 588
393 1 589 590
394 1 589 591
395 1 592 593
396 1 592 594
397 1 595 596
398 1 595 597
399 1 598 599
400 1 598 600
401 1 601 602
402 1 601 603
403 1 604 605
404 1 604 606
405 1 607 608
406 1 607 609
407 1 610 611
408 1 610 612
409 1 613 614
410 1 613 615
411 1 616 617
412 1 616 618
413 1 619 620
414 1 619 621
415 1 622 623
416 1 622 624
417 1 625 626
418 1 625 627
419 1 628 629
420 1 628 630
421 1 631 632
422 1 631 633
423 1 634 635
424 1 634 636
425 1 637 638
426 1 637 639
427 1 640 641
428 1 640 642
429 1 643 644
430 1 643 645
431 1 646 647
432 1 646 648
433 1 649 650
434 1 649 651
435 1 652 653
436 1 652 654
437 1 655 656
438 1 655 657
439 1 658 659
440 1 658 660
441 1 661 662
442 1 661 663
443 1 664 665
444 1 664 666
445 1 667 668
446 1 667 669
447 1 670 671
448 1 670 672
449 1 673 674
450 1 673 675
451 1 676 677
452 1 676 678
453 1 679 680
454 1 679 681
455 1 682 683
456 1 682 684
457 1 685 686
458 1 685 687
459 1 688 689
460 1 688 690
461 1 691 692
462 1 691 693
463 1 694 695
464 1 694 696
465 1 697 698
466 1 697 699
467 1 700 701
468 1 700 702
469 1 703 704
470 1 703 705
471 1 706 707
472 1 706 708
473 1 709 710
474 1 709 711
475 1 712 713
476 1 712 714
477 1 715 716
478 1 715 717
479 1 718 719
480 1 718 720
481 1 721 722
482 1 721 723
483 1 724 725
484 1 724 726
485 1 727 728
486 1 727 729
487 1 730 731
488 1 730 732
489 1 733 734
490 1 733 735
491 1 736 737
492 1 736 738
493 1 739 740
494 1 739 741
495 1 742 743
496 1 742 744
497 1 745 746
498 1 745 747
499 1 748 749
500 1 748 750
501 1 751 752
502 1 751 753
503 1 754 755
504 1 754 756
505 1 757 758
506 1 757 759
507 1 760 761
508 1 760 762
509 1 763 764
510 1 763 765
511 1 766 767
512 1 766 768
513 1 769 770
514 1 769 771
515 1 772 773
516 1 772 774
517 1 775 776
518 1 775 777
519 1 778 779
520 1 778 780
521 1 781 782
522 1 781 783
523 1 784 785
524 1 784 786
525 1 787 788
526 1 787 789
527 1 790 791
528 1 790 792
529 1 793 794
530 1 793 795
531 1 796 797
532 1 796 798
533 1 799 800
534 1 799 801
535 1 802 803
536 1 802 804
537 1 805 806
538 1 805 807
539 1 808 809
540 1 808 810
541 1 811 812
542 1 811 813
543 1 814 815
544 1 814 816
545 1 817 818
546 1 817 819
547 1 820 821
548 1 820 822
549 1 823 824
550 1 823 825
551 1 826 827
552 1 826 828
553 1 829 830
554 1 829 831
555 1 832 833
556 1 832 834
557 1 835 836
558 1 835 837
559 1 838 839
560 1 838 840
561 1 841 842
562 1 841 843
563 1 844 845
564 1 844 846
565 1 847 848
566 1 847 849
567 1 850 851
568 1 850 852
569 1 853 854
570 1 853 855
571 1 856 857
572 1 856 858
573 1 859 860
574 1 859 861
575 1 862 863
576 1 862 864
577 1 865 866
578 1 865 867
579 1 868 869
580 1 868 870
581 1 871 872
582 1 871 873
583 1 874 875
584 1 874 876
585 1 877 878
586 1 877 879
587 1 880 881
588 1 880 882
589 1 883 884
590 1 883 885
591 1 886 887
592 1 886 888
593 1 889 890
594 1 889 891
595 1 892 893
596 1 892 894
597 1 895 896
598 1 895 897
599 1 898 899
600 1 898 900
601 1 901 902
602 1 901 903
603 1 904 905
604 1 904 906
605 1 907 908
606 1 907 909
607 1 910 911
608 1 910 912
609 1 913 914
610 1 913 915
611 1 916 917
612 1 916 918
613 1 919 920
614 1 919 921
615 1 922 923
616 1 922 924
617 1 925 926
618 1 925 927
619 1 928 929
620 1 928 930
621 1 931 932
622 1 931 933
623 1 934 935
624 1 934 936
625 1 937 938
626 1 937 939
627 1 940 941
628 1 940 942
629 1 943 944
630 1 943 945
631 1 946 947
632 1 946 948
633 1 949 950
634 1 949 951
635 1 952 953
636 1 952 954
637 1 955 956
638 1 955 957
639 1 958 959
640 1 958 960
641 1 961 962
642 1 961 963
643 1 964 965
644 1 964 966
645 1 967 968
646 1 967 969
647 1 970 971
648 1 970 972
649 1 973 974
650 1 973 975
651 1 976 977
652 1 976 978
653 1 979 980
654 1 979 981
655 1 982 983
656 1 982 984
657 1 985 986
658 1 985 987
659 1 988 989
660 1 988 990
661 1 991 992
662 1 991 993
663 1 994 995
664 1 994 996
665 1 997 998
666 1 997 999
667 1 1000 1001
668 1 1000 1002
669 1 1003 1004
670 1 1003 1005
671 1 1006 1007
672 1 1006 1008
673 1 1009 1010
674 1 1009 1011
675 1 1012 1013
676 1 1012 1014
677 1 1015 1016
678 1 1015 1017
679 1 1018 1019
680 1 1018 1020
681 1 1021 1022
682 1 1021 1023
683 1 1024 1025
684 1 1024 1026
685 1 1027 1028
686 1 1027 1029
687 1 1030 1031
688 1 1030 1032
689 1 1033 1034
690 1 1033 1035
691 1 1036 1037
692 1 1036 1038
693 1 1039 1040
694 1 1039 1041
695 1 1042 1043
696 1 1042 1044
697 1 1045 1046
698 1 1045 1047
699 1 1048 1049
700 1 1048 1050
701 1 1051 1052
702 1 1051 1053
703 1 1054 1055
704 1 1054 1056
705 1 1057 1058
706 1 1057 1059
707 1 1060 1061
708 1 1060 1062
709 1 1063 1064
710 1 1063 1065
711 1 1066 1067
712 1 1066 1068
713 1 1069 1070
714 1 1069 1071
715 1 1072 1073
716 1 1072 1074
717 1 1075 1076
718 1 1075 1077
719 1 1078 1079
720 1 1078 1080
721 1 1081 1082
722 1 1081 1083
723 1 1084 1085
724 1 1084 1086
725 1 1087 1088
726 1 1087 1089
727 1 1090 1091
728 1 1090 1092
729 1 1093 1094
730 1 1093 1095
731 1 1096 1097
732 1 1096 1098
733 1 1099 1100
734 1 1099 1101
735 1 1102 1103
736 1 1102 1104
737 1 1105 1106
738 1 1105 1107
739 1 1108 1109
740 1 1108 1110
741 1 1111 1112
742 1 1111 1113
743 1 1114 1115
744 1 1114 1116
745 1 1117 1118
746 1 1117 1119
747 1 1120 1121
748 1 1120 1122
749 1 1123 1124
750 1 1123 1125
751 1 1126 1127
752 1 1126 1128
753 1 1129 1130
754 1 1129 1131
755 1 1132 1133
756 1 1132 1134
757 1 1135 1136
758 1 1135 1137
759 1 1138 1139
760 1 1138 1140
761 1 1141 1142
762 1 1141 1143
763 1 1144 1145
764 1 1144 1146
765 1 1147 1148
766 1 1147 1149
767 1 1150 1151
768 1 1150 1152
769 1 1153 1154
770 1 1153 1155
771 1 1156 1157
772 1 1156 1158
773 1 1159 1160
774 1 1159 1161
775 1 1162 1163
776 1 1162 1164
777 1 1165 1166
778 1 1165 1167
779 1 1168 1169
780 1 1168 1170
781 1 1171 1172
782 1 1171 1173
783 1 1174 1175
784 1 1174 1176
785 1 1177 1178
786 1 1177 1179
787 1 1180 1181
788 1 1180 1182
789 1 1183 1184
790 1 1183 1185
791 1 1186 1187
792 1 1186 1188
793 1 1189 1190
794 1 1189 1191
795 1 1192 1193
796 1 1192 1194
797 1 1195 1196
798 1 1195 1197
799 1 1198 1199
800 1 1198 1200
801 1 1201 1202
802 1 1201 1203
803 1 1204 1205
804 1 1204 1206
805 1 1207 1208
806 1 1207 1209
807 1 1210 1211
808 1 1210 1212
809 1 1213 1214
810 1 1213 1215
811 1 1216 1217
812 1 1216 1218
813 1 1219 1220
814 1 1219 1221
815 1 1222 1223
816 1 1222 1224
817 1 1225 1226
818 1 1225 1227
819 1 1228 1229
820 1 1228 1230
821 1 1231 1232
822 1 1231 1233
823 1 1234 1235
824 1 1234 1236
825 1 1237 1238
826 1 1237 1239
827 1 1240 1241
828 1 1240 1242
829 1 1243 1244
830 1 1243 1245
831 1 1246 1247
832 1 1246 1248
833 1 1249 1250
834 1 1249 1251
835 1 1252 1253
836 1 1252 1254
837 1 1255 1256
838 1 1255 1257
839 1 1258 1259
840 1 1258 1260
841 1 1261 1262
842 1 1261 1263
843 1 1264 1265
844 1 1264 1266
845 1 1267 1268
846 1 1267 1269
847 1 1270 1271
848 1 1270 1272
849 1 1273 1274
850 1 1273 1275
851 1 1276 1277
852 1 1276 1278
853 1 1279 1280
854 1 1279 1281
855 1 1282 1283
856 1 1282 1284
857 1 1285 1286
858 1 1285 1287
859 1 1288 1289
860 1 1288 1290
861 1 1291 1292
862 1 1291 1293
863 1 1294 1295
864 1 1294 1296
865 1 1297 1298
866 1 1297 1299
867 1 1300 1301
868 1 1300 1302
869 1 1303 1304
870 1 1303 1305
871 1 1306 1307
872 1 1306 1308
873 1 1309 1310
874 1 1309 1311
875 1 1312 1313
876 1 1312 1314
877 1 1315 1316
878 1 1315 1317
879 1 1318 1319
880 1 1318 1320
881 1 1321 1322
882 1 1321 1323
883 1 1324 1325
884 1 1324 1326
885 1 1327 1328
886 1 1327 1329
887 1 1330 1331
888 1 1330 1332
889 1 1333 1334
890 1 1333 1335
891 1 1336 1337
892 1 1336 1338
893 1 1339 1340
894 1 1339 1341
895 1 1342 1343
896 1 1342 1344
897 1 1345 1346
898 1 1345 1347
899 1 1348 1349
900 1 1348 1350
901 1 1351 1352
902 1 1351 1353
903 1 1354 1355
904 1 1354 1356
905 1 1357 1358
906 1 1357 1359
907 1 1360 1361
908 1 1360 1362
909 1 1363 1364
910 1 1363 1365
911 1 1366 1367
912 1 1366 1368
913 1 1369 1370
914 1 1369 1371
915 1 1372 1373
916 1 1372 1374
917 1 1375 1376
918 1 1375 1377
919 1 1378 1379
920 1 1378 1380
921 1 1381 1382
922 1 1381 1383
923 1 1384 1385
924 1 1384 1386
925 1 1387 1388
926 1 1387 1389
927 1 1390 1391
928 1 1390 1392
929 1 1393 1394
930 1 1393 1395
931 1 1396 1397
932 1 1396 1398
933 1 1399 1400
934 1 1399 1401
935 1 1402 1403
936 1 1402 1404
937 1 1405 1406
938 1 1405 1407
939 1 1408 1409
940 1 1408 1410
941 1 1411 1412
942 1 1411 1413
943 1 1414 1415
944 1 1414 1416
945 1 1417 1418
946 1 1417 1419
947 1 1420 1421
948 1 1420 1422
949 1 1423 1424
950 1 1423 1425
951 1 1426 1427
952 1 1426 1428
953 1 1429 1430
954 1 1429 1431
955 1 1432 1433
956 1 1432 1434
957 1 1435 1436
958 1 1435 1437
959 1 1438 1439
960 1 1438 1440
961 1 1441 1442
962 1 1441 1443
963 1 1444 1445
964 1 1444 1446
965 1 1447 1448
966 1 1447 1449
967 1 1450 1451
968 1 1450 1452
969 1 1453 1454
970 1 1453 1455
971 1 1456 1457
972 1 1456 1458
973 1 1459 1460
974 1 1459 1461
975 1 1462 1463
976 1 1462 1464
977 1 1465 1466
978 1 1465 1467
979 1 1468 1469
980 1 1468 1470
981 1 1471 1472
982 1 1471 1473
983 1 1474 1475
984 1 1474 1476
985 1 1477 1478
986 1 1477 1479
987 1 1480 1481
988 1 1480 1482
989 1 1483 1484
990 1 1483 1485
991 1 1486 1487
992 1 1486 1488
993 1 1489 1490
994 1 1489 1491
995 1 1492 1493
996 1 1492 1494
997 1 1495 1496
998 1 1495 1497
999 1 1498 1499
1000 1 1498 1500

Angles

1 1 2 1 3
2 1 5 4 6
3 1 8 7 9
4 1 11 10 12
5 1 14 13 15
6 1 17 16 18
7 1 20 19 21
8 1 23 22 24
9 1 26 25 27
10 1 29 28 30
11 1 32 31 33
12 1 35 34 36
13 1 38 37 39
14 1 41 40 42
15 1 44 43 45
16 1 47 46 48
17 1 50 49 51
18 1 53 52 54
19 1 56 55 57
20 1 59 58 60
21 1 62 61 63
22 1 65 64 66
23 1 68 67 69
24 1 71 70 72
25 1 74 73 75
26 1 77 76 78
27 1 80 79 81
28 1 83 82 84
29 1 86 85 87
30 1 89 88 90
31 1 92 91 93
32 1 95 94 96
33 1 98 97 99
34 1 101 100 102
35 1 104 103 105
36 1 107 106 108
37 1 110 109 111
38 1 113 112 114
39 1 116 115 117
40 1 119 118 120
41 1 122 121 123
42 1 125 124 126
43 1 128 127 129
44 1 131 130 132
45 1 134 133 135
46 1 137 136 138
47 1 140 139 141
48 1 143 142 144
49 1 146 145 147
50 1 149 148 150
51 1 152 151 153
52 1 155 154 156
53 1 158 157 159
54 1 161 160 162
55 1 164 163 165
56 1 167 166 168
57 1 170 169 171
58 1 173 172 174
59 1 176 175 177
60 1 179 178 180
61 1 182 181 183
62 1 185 184 186
63 1 188 187 189
64 1 191 190 192
65 1 194 193 195
66 1 197 196 198
67 1 200 199 201
68 1 203 202 204
69 1 206 205 207
70 1 209 208 210
71 1 212 211 213
72 1 215 214 216
73 1 218 217 219
74 1 221 220 222
75 1 224 223 225
76 1 227 226 228
77 1 230 229 231
78 1 233 232 234
79 1 236 235 237
80 1 239 238 240
81 1 242 241 243
82 1 245 244 246
83 1 248 247 249
84 1 251 250 252
85 1 254 253 255
86 1 257 256 258
87 1 260 259 261
88 1 263 262 264
89 1 266 265 267
90 1 269 268 270
91 1 272 271 273
92 1 275 274 276
93 1 278 277 279
94 1 281 280 282
95 1 284 283 285
96 1 287 286 288
97 1 290 289 291
98 1 293 292 294
99 1 296 295 297
100 1 299 298 300
101 1 302 301 303
102 1 305 304 306
103 1 308 307 309
104 1 311 310 312
105 1 314 313 315
106 1 317 316 318
107 1 320 319 321
108 1 323 322 324
109 1 326 325 327
110 1 329 328 330
111 1 332 331 333
112 1 335 334 336
113 1 338 337 339
114 1 341 340 342
115 1 344 343 345
116 1 347 346 348
117 1 350 349 351
118 1 353 352 354
119 1 356 355 357
120 1 359 358 360
121 1 362 361 363
122 1 365 364 366
123 1 368 367 369
124 1 371 370 372
125 1 374 373 375
126 1 377 376 378
127 1 380 379 381
128 1 383 382 384
129 1 386 385 387
130 1 389 388 390
131 1 392 391 393
132 1 395 394 396
133 1 398 397 399
134 1 401 400 402
135 1 404 403 405
136 1 407 406 408
137 1 410 409 411
138 1 413 412 414
139 1 416 415 417
140 1 419 418 420
141 1 422 421 423
142 1 425 424 426
143 1 428 427 429
144 1 431 430 432
145 1 434 433 435
146 1 437 436 438
147 1 440 439 441
148 1 443 442 444
149 1 446 445 447
150 1 449 448 450
151 1 452 451 453
152 1 455 454 456
153 1 458 457 459
154 1 461 460 462
155 1 464 463 465
156 1 467 466 468
157 1 470 469 471
158 1 473 472 474
159 1 476 475 477
160 1 479 478 480
161 1 482 481 483
162 1 485 484 486
163 1 488 487 489
164 1 491 490 492
165 1 494 493 495
166 1 497 496 498
167 1 500 499 501
168 1 503 502 504
169 1 506 505 507
170 1 509 508 510
171 1 512 511 513
172 1 515 514 516
173 1 518 517 519
174 1 521 520 522
175 1 524 523 525
176 1 527 526 528
177 1 530 529 531
178 1 533 532 534
179 1 536 535 537
180 1 539 538 540
181 1 542 541 543
182 1 545 544 546
183 1 548 547 549
184 1 551 550 552
185 1 554 553 555
186 1 557 556 558
187 1 560 559 561
188 1 563 562 564
189 1 566 565 567
190 1 569 568 570
191 1 572 571 573
192 1 575 574 576
193 1 578 577 579
194 1 581 580 582
195 1 584 583 585
196 1 587 586 588
197 1 590 589 591
198 1 593 592 594
199 1 596 595 597
200 1 599 598 600
201 1 602 601 603
202 1 605 604 606
203 1 608 607 609
204 1 611 610 612
205 1 614 613 615
206 1 617 616 618
207 1 620 619 621
208 1 623 622 624
209 1 626 625 627
210 1 629 628 630
211 1 632 631 633
212 1 635 634 636
213 1 638 637 639
214 1 641 640 642
215 1 644 643 645
216 1 647 646 648
217 1 650 649 651
218 1 653 652 654
219 1 656 655 657
220 1 659 658 660
221 1 662 661 663
222 1 665 664 666
223 1 668 667 669
224 1 671 670 672
225 1 674 673 675
226 1 677 676 678
227 1 680 679 681
228 1 683 682 684
229 1 686 685 687
230 1 689 688 690
231 1 692 691 693
232 1 695 694 696
233 1 698 697 699
234 1 701 700 702
235 1 704 703 705
236 1 707 706 708
237 1 710 709 711
238 1 713 712 714
239 1 716 715 717
240 1 719 718 720
241 1 722 721 723
242 1 725 724 726
243 1 728 727 729
244 1 731 730 732
245 1 734 733 735
246 1 737 736 738
247 1 740 739 741
248 1 743 742 744
249 1 746 745 747
250 1 749 748 750
251 1 752 751 753
252 1 755 754 756
253 1 758 757 759
254 1 761 760 762
255 1 764 763 765
256 1 767 766 768
257 1 770 769 771
258 1 773 772 774
259 1 776 775 777
260 1 779 778 780
261 1 782 781 783
262 1 785 784 786
263 1 788 787 789
264 1 791 790 792
265 1 794 793 795
266 1 797 796 798
267 1 800 799 801
268 1 803 802 804
269 1 806 805 807
270 1 809 808 810
271 1 812 811 813
272 1 815 814 816
273 1 818 817 819
274 1 821 820 822
275 1 824 823 825
276 1 827 826 828
277 1 830 829 831
278 1 833 832 834
279 1 836 835 837
280 1 839 838 840
281 1 842 841 843
282 1 845 844 846
283 1 848 847 849
284 1 851 850 852
285 1 854 853 855
286 1 857 856 858
287 1 860 859 861
288 1 863 862 864
289 1 866 865 867
290 1 869 868 870
291 1 872 871 873
292 1 875 874 876
293 1 878 877 879
294 1 881 880 882
295 1 884 883 885
296 1 887 886 888
297 1 890 889 891
298 1 893 892 894
299 1 896 895 897
300 1 899 898 900
301 1 902 901 903
302 1 905 904 906
303 1 908 907 909
304 1 911 910 912
305 1 914 913 915
306 1 917 916 918
307 1 920 919 921
308 1 923 922 924
309 1 926 925 927
310 1 929 928 930
311 1 932 931 933
312 1 935 934 936
313 1 938 937 939
314 1 941 940 942
315 1 944 943 945
316 1 947 946 948
317 1 950 949 951
318 1 953 952 954
319 1 956 955 957
320 1 959 958 960
321 1 962 961 963
322 1 965 964 966
323 1 968 967 969
324 1 971 970 972
325 1 974 973 975
326 1 977 976 978
327 1 980 979 981
328 1 983 982 984
329 1 986 985 987
330 1 989 988 990
331 1 992 991 993
332 1 995 994 996
333 1 998 997 999
334 1 1001 1000 1002
335 1 1004 1003 1005
336 1 1007 1006 1008
337 1 1010 1009 1011
338 1 1013 1012 1014
339 1 1016 1015 1017
340 1 1019 1018 1020
341 1 1022 1021 1023
342 1 1025 1024 1026
343 1 1028 1027 1029
344 1 1031 1030 1032
345 1 1034 1033 1035
346 1 1037 1036 1038
347 1 1040 1039 1041
348 1 1043 1042 1044
349 1 1046 1045 1047
350 1 1049 1048 1050
351 1 1052 1051 1053
352 1 1055 1054 1056
353 1 1058 1057 1059
354 1 1061 1060 1062
355 1 1064 1063 1065
356 1 1067 1066 1068
357 1 1070 1069 1071
358 1 1073 1072 1074
359 1 1076 1075 1077
360 1 1079 1078 1080
361 1 1082 1081 1083
362 1 1085 1084 1086
363 1 1088 1087 1089
364 1 1091 1090 1092
365 1 1094 1093 1095
366 1 1097 1096 1098
367 1 1100 1099 1101
368 1 1103 1102 1104
369 1 1106 1105 1107
370 1 1109 1108 1110
371 1 1112 1111 1113
372 1 1115 1114 1116
373 1 1118 1117 1119
374 1 1121 1120 1122
375 1 1124 1123 1125
376 1 1127 1126 1128
377 1 1130 1129 1131
378 1 1133 1132 1134
379 1 1136 1135 1137
380 1 1139 1138 1140
381 1 1142 1141 1143
382 1 1145 1144 1146
383 1 1148 1147 1149
384 1 1151 1150 1152
385 1 1154 1153 1155
386 1 1157 1156 1158
387 1 1160 1159 1161
388 1 1163 1162 1164
389 1 1166 1165 1167
390 1 1169 1168 1170
391 1 1172 1171 1173
392 1 1175 1174 1176
393 1 1178 1177 1179
394 1 1181 1180 1182
395 1 1184 1183 1185
396 1 1187 1186 1188
397 1 1190 1189 1191
398 1 1193 1192 1194
399 1 1196 1195 1197
400 1 1199 1198 1200
401 1 1202 1201 1203
402 1 1205 1204 1206
403 1 1208 1207 1209
404 1 1211 1210 1212
405 1 1214 1213 1215
406 1 1217 1216 1218
407 1 1220 1219 1221
408 1 1223 1222 1224
409 1 1226 1225 1227
410 1 1229 1228 1230
411 1 1232 1231 1233
412 1 1235 1234 1236
413 1 1238 1237 1239
414 1 1241 1240 1242
415 1 1244 1243 1245
416 1 1247 1246 1248
417 1 1250 1249 1251
418 1 1253 1252 1254
419 1 1256 1255 1257
420 1 1259 1258 1260
421 1 1262 1261 1263
422 1 1265 1264 1266
423 1 1268 1267 1269
424 1 1271 1270 1272
425 1 1274 1273 1275
426 1 1277 1276 1278
427 1 1280 1279 1281
428 1 1283 1282 1284
429 1 1286 1285 1287
430 1 1289 1288 1290
431 1 1292 1291 1293
432 1 1295 1294 1296
433 1 1298 1297 1299
434 1 1301 1300 1302
435 1 1304 1303 1305
436 1 1307 1306 1308
437 1 1310 1309 1311
438 1 1313 1312 1314
439 1 1316 1315 1317
440 1 1319 1318 1320
441 1 1322 1321 1323
442 1 1325 1324 1326
443 1 1328 1327 1329
444 1 1331 1330 1332
445 1 1334 1333 1335
446 1 1337 1336 1338
447 1 1340 1339 1341
448 1 1343 1342 1344
449 1 1346 1345 1347
450 1 1349 1348 1350
451 1 1352 1351 1353
452 1 1355 1354 1356
453 1 1358 1357 1359
454 1 1361 1360 1362
455 1 1364 1363 1365
456 1 1367 1366 1368
457 1 1370 1369 1371
458 1 1373 1372 1374
459 1 1376 1375 1377
460 1 1379 1378 1380
461 1 1382 1381 1383
462 1 1385 1384 1386
463 1 1388 1387 1389
464 1 1391 1390 1392
465 1 1394 1393 1395
466 1 1397 1396 1398
467 1 1400 1399 1401
468 1 1403 1402 1404
469 1 1406 1405 1407
470 1 1409 1408 1410
471 1 1412 1411 1413
472 1 1415 1414 1416
473 1 1418 1417 1419
474 1 1421 1420 1422
475 1 1424 1423 1425
476 1 1427 1426 1428
477 1 1430 1429 1431
478 1 1433 1432 1434
479 1 1436 1435 1437
480 1 1439 1438 1440
481 1 1442 1441 1443
482 1 1445 1444 1446
483 1 1448 1447 1449
484 1 1451 1450 1452
485 1 1454 1453 1455
486 1 1457 1456 1458
487 1 1460 1459 1461
488 1 1463 1462 1464
489 1 1466 1465 1467
490 1 1469 1468 1470
491 1 1472 1471 1473
492 1 1475 1474 1476
493 1 1478 1477 1479
494 1 1481 1480 1482
495 1 1484 1483 1485
496 1 1487 1486 1488
497 1 1490 1489 1491
498 1 1493 1492 1494
499 1 1496 1495 1497
500 1 1499 1498 1500
